0 146
0 268
0 581
0 18
0 178
0 380
0 459
0 148
0 73
0 498
0 226
0 101
0 218
0 377
0 103
0 560
0 309
0 88
0 5
0 297
0 313
0 223
0 238
0 222
0 283
0 6
0 64
0 166
0 571
1 551
2 3
2 4
2 195
2 305
2 412
2 194
2 13
2 63
2 192
2 586
2 408
2 138
2 434
2 6
2 281
2 193
2 211
2 58
2 520
2 481
2 59
2 208
2 506
2 516
2 160
2 132
2 411
2 587
2 96
2 64
2 158
2 738
2 832
2 273
2 845
2 571
2 54
2 612
2 865
2 283
2 107
2 880
2 162
2 546
2 812
2 308
2 990
2 405
2 896
2 1001
2 357
3 63
3 2
3 4
3 408
3 58
3 192
3 303
3 286
3 59
3 236
3 665
3 175
3 520
3 411
3 137
3 158
3 194
3 239
3 107
3 571
3 859
3 601
3 57
3 812
3 832
3 183
3 256
3 434
3 685
3 193
3 971
3 845
3 6
3 252
3 271
3 281
3 880
3 405
3 128
3 371
3 46
3 990
3 91
4 3
4 194
4 195
4 114
4 174
4 193
4 412
4 107
4 59
4 58
4 282
4 408
4 283
4 301
4 211
4 305
4 424
4 121
4 142
4 158
4 532
4 57
4 137
4 826
4 803
4 845
4 208
4 612
4 411
4 256
4 587
4 698
4 712
4 738
4 271
4 252
4 102
4 162
4 859
4 169
4 425
4 54
4 96
4 138
4 896
4 6
4 812
4 131
4 990
4 82
4 405
4 360
4 430
4 166
4 880
4 1001
5 6
5 64
5 327
5 53
5 528
5 105
5 489
5 2
5 527
5 357
5 58
5 279
5 59
5 669
5 211
5 194
5 644
5 379
5 191
5 281
5 42
5 74
5 309
5 183
5 21
5 726
5 730
5 189
5 408
5 286
5 283
5 132
5 312
5 405
5 82
5 169
5 171
5 306
5 337
5 492
5 41
5 249
5 63
5 134
5 201
5 128
5 255
5 192
5 516
5 291
5 141
5 285
5 0
5 218
5 243
5 209
5 496
5 738
5 271
5 362
5 423
5 303
5 718
5 828
5 833
5 57
5 96
5 417
5 346
5 469
5 236
5 716
5 184
5 572
5 154
5 242
5 420
5 931
5 252
5 859
5 261
5 325
5 135
5 308
5 445
5 728
5 34
5 990
5 900
5 99
5 690
5 448
6 5
6 157
6 489
6 134
6 4
6 438
6 195
6 64
6 473
6 96
6 516
6 481
6 376
6 408
6 667
6 397
6 305
6 54
6 751
6 528
6 206
6 375
6 515
6 139
6 362
6 284
6 429
6 430
6 102
6 237
6 191
6 183
6 665
6 412
6 308
6 520
6 549
6 458
6 544
6 58
6 845
6 685
6 194
6 141
6 21
6 63
6 587
6 181
6 337
6 296
6 377
6 57
6 486
6 169
6 299
6 3
6 346
6 204
6 571
6 389
6 738
6 880
6 949
6 193
6 252
6 211
6 552
6 232
6 562
6 921
6 168
6 1001
6 387
8 9
8 566
8 510
8 358
8 44
8 570
8 498
8 499
8 504
8 525
8 141
8 856
8 466
8 823
8 661
8 160
8 950
8 301
9 421
9 8
9 44
9 529
9 569
9 359
9 499
9 558
9 266
9 699
9 500
9 358
9 720
9 707
9 674
9 765
9 957
9 485
10 260
10 36
10 325
10 25
10 173
10 728
10 13
10 324
10 434
10 21
10 69
10 340
10 366
10 96
10 405
10 306
10 256
10 508
10 121
10 329
10 20
10 86
10 105
10 274
12 14
12 19
12 141
12 565
12 510
12 573
12 569
12 681
12 44
12 160
12 86
12 498
12 560
12 856
12 121
12 700
12 183
12 823
12 420
12 362
12 957
12 996
12 638
13 126
13 238
13 209
13 301
13 446
13 35
13 303
13 95
13 129
13 506
13 90
13 118
13 2
13 352
13 550
13 179
13 624
13 420
13 286
13 65
13 306
13 329
13 214
13 340
13 21
13 443
13 576
13 171
13 461
13 137
13 590
13 135
13 113
13 305
13 336
13 38
13 476
13 409
13 280
13 326
13 478
13 199
13 327
13 33
13 497
13 197
13 285
13 272
13 190
13 273
13 489
13 156
13 514
13 242
13 322
13 184
13 356
13 83
13 211
13 32
13 26
13 263
13 349
13 421
13 47
13 4
13 698
13 63
13 767
13 39
13 458
13 79
13 667
13 170
13 526
13 19
13 53
13 342
13 69
13 423
13 93
13 304
13 661
13 191
13 375
13 172
13 51
13 552
13 748
13 183
13 40
13 346
13 351
13 114
13 484
13 390
13 350
13 509
13 371
13 236
13 980
13 239
13 357
13 177
13 302
13 900
13 297
13 119
14 12
14 103
14 380
14 389
14 526
14 85
14 53
14 312
14 18
14 178
14 486
14 181
14 129
14 493
14 277
14 203
14 284
14 47
14 196
14 168
14 291
14 231
14 292
14 339
14 256
14 498
14 523
14 482
14 515
14 368
14 93
14 172
14 593
14 776
14 65
14 562
14 922
14 283
14 125
16 424
16 106
16 128
16 63
16 132
16 282
16 434
16 489
16 68
16 170
16 183
16 280
16 337
16 828
16 771
16 107
16 362
16 308
16 164
16 64
16 281
16 311
18 103
18 160
18 0
18 366
18 222
18 85
18 317
18 696
18 376
18 177
18 74
18 104
18 424
18 232
18 310
18 419
18 852
18 182
18 215
18 219
18 107
18 120
18 365
19 12
19 267
19 161
19 473
19 183
19 666
19 293
19 44
19 550
19 510
19 555
19 504
19 754
19 707
19 674
19 366
19 107
19 141
19 499
19 459
19 856
19 533
19 573
19 83
19 160
19 823
19 549
19 421
19 360
19 957
19 42
19 184
19 268
20 22
20 106
20 188
20 173
20 92
20 68
20 259
20 459
20 400
20 137
20 520
20 409
20 127
20 287
20 82
20 327
20 715
20 536
20 187
20 480
20 223
20 83
20 96
20 166
20 885
20 887
20 215
20 424
20 366
20 28
20 260
20 329
20 271
21 22
21 173
21 325
21 20
21 306
21 326
21 327
21 212
21 92
21 105
21 96
21 127
21 624
21 308
21 121
21 489
21 728
21 82
21 42
21 29
21 283
21 420
21 367
21 214
21 686
21 329
21 28
21 114
21 44
21 314
21 129
21 434
21 787
21 5
21 405
21 46
21 303
21 462
21 41
21 183
21 548
21 467
21 550
21 671
21 260
21 259
21 357
21 36
21 459
21 480
21 272
21 87
21 280
21 83
21 174
21 6
21 86
21 282
21 188
21 690
21 615
21 424
21 409
21 189
21 551
21 296
21 166
21 896
21 211
21 581
21 365
21 184
21 152
21 276
22 21
22 20
22 92
22 35
22 137
22 173
22 520
22 127
22 686
22 301
22 155
22 48
23 25
23 26
23 28
23 31
23 32
23 33
23 35
23 36
23 38
23 40
23 590
23 251
23 417
23 13
23 160
23 166
23 116
23 170
23 427
23 215
23 107
23 128
23 367
23 494
23 121
23 212
23 261
23 229
23 82
23 135
23 953
23 171
23 950
23 151
23 337
23 932
23 484
25 438
25 23
25 10
25 38
25 34
25 473
25 30
25 459
25 301
25 245
26 38
26 25
26 23
26 251
26 35
26 29
26 32
26 135
26 438
26 170
26 442
26 34
26 47
26 953
26 399
28 35
28 23
28 367
28 338
28 113
28 365
28 438
28 128
28 160
28 39
28 29
28 363
28 21
28 340
28 129
28 434
28 31
28 424
28 25
28 722
28 33
28 34
28 590
28 40
28 545
28 183
28 329
28 46
28 107
28 339
28 229
28 87
28 96
28 419
28 405
28 86
28 172
28 63
28 303
28 51
28 44
28 914
28 256
28 20
28 151
28 301
28 932
28 420
28 177
29 40
29 420
29 23
29 25
29 26
29 30
29 33
29 35
29 38
29 39
29 51
29 28
29 32
29 36
29 560
29 151
29 473
29 21
29 409
29 590
29 5
29 533
29 443
29 116
29 169
29 964
29 459
30 36
30 41
30 438
30 609
30 35
30 28
30 32
30 29
30 151
30 31
30 434
30 764
30 367
30 44
30 128
30 51
30 261
30 251
30 424
30 129
30 26
30 590
30 38
30 40
30 545
30 172
30 82
30 263
30 546
30 721
30 337
30 417
30 116
30 336
30 86
30 160
31 23
31 36
31 155
31 438
31 367
31 424
31 28
31 338
31 427
31 30
31 96
31 151
31 39
31 29
31 121
31 162
31 33
31 32
31 143
31 123
31 135
31 337
31 82
31 51
31 254
31 156
32 23
32 26
32 438
32 30
32 251
32 261
32 533
32 40
32 151
32 590
32 35
32 883
32 50
33 40
33 35
33 438
33 878
33 615
33 34
33 29
33 30
33 39
33 590
33 32
34 35
34 38
34 40
34 54
34 23
34 151
34 26
34 29
34 31
34 32
34 36
34 438
34 434
34 5
35 28
35 23
35 129
35 33
35 434
35 39
35 151
35 5
35 301
35 25
35 26
35 31
35 590
35 38
35 128
35 367
35 107
35 878
35 14
35 486
35 121
35 338
36 28
36 30
36 10
36 23
36 545
36 29
36 21
36 113
36 48
36 121
36 169
36 25
38 25
38 443
38 370
38 245
38 417
38 547
38 48
38 171
38 438
38 339
38 722
38 86
38 409
38 113
38 30
38 28
38 915
38 47
38 592
38 329
38 421
38 474
38 29
38 39
38 162
39 28
39 23
39 35
39 480
39 29
39 40
39 437
39 114
39 883
39 366
40 29
40 251
40 35
40 48
40 438
40 25
40 28
40 30
40 34
40 38
40 590
40 245
40 113
40 547
40 261
40 151
40 442
40 135
40 47
40 847
40 119
40 443
40 31
40 917
40 93
40 919
40 900
40 964
40 816
40 63
41 42
41 51
41 85
41 86
41 87
41 93
41 95
41 196
41 197
41 200
41 201
41 202
41 204
41 205
41 128
41 280
41 114
41 483
41 169
41 136
41 30
41 232
41 482
41 47
41 107
41 776
41 212
41 166
41 121
41 612
41 160
41 546
41 601
41 23
41 493
41 474
41 801
41 63
41 215
41 434
41 460
41 751
41 908
41 199
42 41
42 74
42 190
42 183
42 81
42 184
42 329
42 44
42 187
42 106
42 129
42 215
42 434
42 493
42 667
42 20
42 188
42 5
42 105
42 58
42 612
42 280
42 19
42 243
42 212
42 296
42 163
42 255
42 490
42 671
42 473
42 607
42 166
42 343
42 169
43 44
43 407
43 505
43 499
43 550
44 293
44 407
44 43
44 183
44 161
44 358
44 374
44 324
44 16
44 405
44 499
44 501
44 805
44 503
44 332
44 141
44 8
44 573
44 129
44 360
44 555
44 565
44 30
44 51
44 121
44 128
44 283
44 82
44 419
44 699
44 550
44 549
44 107
44 424
44 211
44 9
44 754
44 366
44 956
44 359
44 967
44 525
44 526
44 10
44 225
45 461
45 371
45 322
45 274
45 216
45 272
45 164
45 428
45 445
45 838
45 448
45 419
45 640
45 424
45 162
45 142
45 271
45 139
45 16
45 933
45 46
46 139
46 164
46 216
46 45
46 429
46 371
46 63
46 236
46 446
46 106
46 592
46 434
46 21
46 329
46 169
46 16
46 461
46 155
46 256
46 447
46 96
46 132
46 128
46 3
47 48
47 339
47 443
47 41
47 114
47 116
47 113
47 86
47 483
47 168
47 129
47 263
47 482
47 79
47 40
47 160
47 427
47 96
47 417
47 76
47 220
47 135
47 38
47 26
47 107
47 847
47 925
47 489
48 47
48 252
48 114
48 263
48 245
48 443
48 76
48 417
48 485
48 113
48 444
48 423
48 643
48 229
48 96
48 105
48 211
48 36
48 212
48 151
48 367
48 492
48 437
48 84
48 338
48 39
48 482
48 166
48 678
49 50
49 84
49 71
49 297
49 433
49 612
49 87
49 643
49 83
49 562
50 87
50 49
50 71
50 48
50 39
51 280
51 232
51 141
51 35
51 113
51 160
51 197
51 109
51 557
51 581
51 205
51 399
51 371
51 143
51 44
51 114
51 30
51 79
51 118
51 283
51 409
51 82
51 362
51 28
51 95
51 498
51 112
51 64
51 200
51 385
52 185
52 368
52 595
52 1
52 314
52 781
52 814
52 61
52 377
52 719
52 197
52 334
53 280
53 397
53 182
53 231
53 434
53 128
53 157
53 103
53 380
53 389
53 61
53 85
53 312
53 178
53 486
53 420
53 82
54 58
54 59
54 211
54 281
54 34
54 6
54 481
54 137
54 194
54 803
54 63
54 520
54 208
54 738
54 665
54 2
54 304
54 411
54 438
54 698
54 552
54 271
54 826
54 166
54 812
54 252
54 131
54 126
54 453
57 96
57 58
57 481
57 63
57 286
57 285
57 412
57 211
57 685
57 59
57 138
57 174
57 408
57 305
57 4
57 849
57 604
57 64
57 552
57 54
57 243
57 411
57 271
57 194
57 812
57 601
57 880
57 195
57 6
57 683
57 859
57 5
57 240
57 193
57 924
57 126
57 949
57 424
58 57
58 208
58 162
58 305
58 366
58 252
58 59
58 63
58 2
58 552
58 195
58 4
58 546
58 665
58 211
58 233
58 285
58 5
58 84
58 107
58 154
58 175
58 408
58 137
58 520
58 105
58 212
58 249
58 193
58 411
58 121
58 82
58 142
58 612
58 481
58 160
58 131
58 738
58 303
58 3
58 615
58 685
58 174
58 132
58 88
58 371
58 462
58 126
58 283
58 288
58 431
58 424
58 87
58 803
58 826
58 81
58 434
58 304
58 166
58 256
58 244
58 372
58 83
58 13
58 859
58 880
58 159
58 158
58 373
58 86
58 587
58 814
58 664
58 845
58 155
58 601
58 921
59 520
59 137
59 3
59 5
59 685
59 132
59 57
59 303
59 610
59 619
59 63
59 408
59 305
59 96
59 412
59 194
59 865
59 138
59 192
59 252
59 285
59 286
59 812
59 971
59 859
59 6
60 377
60 232
60 103
60 219
60 376
60 172
60 231
60 122
60 95
60 283
60 352
60 388
60 390
60 342
60 275
60 157
60 392
60 397
60 379
60 385
60 387
60 396
60 280
60 214
60 105
60 947
60 215
60 630
61 380
61 320
61 232
61 182
61 181
61 157
61 178
61 499
61 172
61 533
61 483
61 179
61 434
61 103
61 265
61 296
61 396
61 345
61 519
61 707
61 389
61 368
61 104
61 52
61 379
61 301
61 376
61 387
61 388
61 395
61 150
61 95
61 280
61 498
61 540
63 137
63 3
63 174
63 371
63 363
63 520
63 571
63 211
63 58
63 281
63 208
63 2
63 286
63 59
63 46
63 408
63 303
63 285
63 305
63 532
63 195
63 434
63 132
63 129
63 16
63 236
63 411
63 256
63 365
63 212
63 552
63 121
63 128
63 41
63 160
63 164
63 324
63 249
63 586
63 233
63 158
63 138
63 412
63 239
63 272
63 301
63 845
63 329
63 255
63 114
63 81
63 832
63 849
63 88
63 44
63 419
63 490
63 184
63 865
63 880
63 812
63 243
63 28
63 718
63 366
63 87
63 859
63 193
63 921
63 271
63 826
63 971
63 126
63 473
63 405
63 896
64 65
64 5
64 141
64 6
64 506
64 14
64 379
64 376
64 515
64 61
64 397
64 280
64 244
64 420
64 644
64 305
64 282
64 169
64 170
64 168
64 216
64 434
64 223
64 103
64 172
64 375
64 87
64 74
64 222
64 523
64 199
64 201
64 134
64 149
64 90
64 191
64 271
64 665
64 367
64 183
64 417
64 211
64 492
64 197
64 349
64 116
64 458
64 249
64 828
64 173
64 329
64 309
64 411
64 325
64 733
64 572
64 611
64 926
64 950
64 51
64 302
64 42
64 196
64 99
64 640
64 937
64 292
64 254
65 257
65 275
65 178
65 426
65 581
65 498
65 101
65 493
65 325
65 51
65 486
65 401
65 366
65 169
65 357
65 282
65 197
65 294
65 874
65 430
65 543
65 280
65 664
65 371
65 600
65 910
65 53
65 232
65 435
65 291
65 835
65 574
65 129
65 791
65 206
65 92
65 998
65 525
65 334
65 639
65 515
65 176
65 483
65 990
65 107
65 315
66 67
66 329
66 108
66 146
66 64
66 469
66 96
66 514
66 90
66 211
66 389
66 661
66 121
66 480
66 252
66 48
66 984
66 111
66 91
66 367
67 66
67 108
67 160
67 640
68 20
68 671
68 473
68 550
68 549
68 508
68 160
68 329
68 16
68 357
68 424
68 418
68 494
68 301
68 183
68 679
68 306
68 107
68 220
68 212
68 366
69 287
69 212
69 260
69 68
69 81
69 108
69 64
69 473
69 190
69 325
69 713
69 10
69 508
69 667
69 418
69 509
69 550
69 551
69 189
69 678
69 329
69 424
69 282
69 87
69 183
69 467
69 356
69 362
69 420
69 141
69 747
69 86
69 409
69 105
69 952
69 958
69 715
69 32
70 71
70 186
70 288
70 180
70 494
70 431
70 212
71 70
71 217
71 50
71 49
71 431
71 433
71 83
71 152
71 121
71 77
72 21
72 259
72 20
72 311
72 641
73 74
73 330
73 331
73 297
73 311
73 707
73 498
73 313
73 116
73 223
73 0
73 106
73 166
73 756
73 309
73 950
73 560
73 356
74 1
74 218
74 220
74 223
74 224
74 225
74 228
74 248
74 73
74 177
74 42
74 311
74 341
74 188
74 260
74 309
74 254
74 86
74 690
74 460
74 107
74 745
74 459
74 85
74 307
74 308
74 310
74 312
74 313
74 0
74 231
74 560
74 268
74 64
74 187
74 67
74 116
74 549
74 485
74 21
74 20
74 142
74 166
74 424
74 400
74 87
74 121
74 438
74 950
74 105
74 152
74 756
74 120
76 119
76 417
76 48
76 485
76 263
76 245
76 47
76 96
76 139
76 420
77 78
77 79
77 581
77 557
77 445
77 212
77 107
77 121
77 950
77 932
77 194
79 120
79 581
79 162
79 339
79 482
79 340
79 47
79 160
79 557
79 51
79 128
79 811
79 77
79 539
79 445
79 116
79 226
79 417
79 152
79 601
79 107
79 10
81 256
81 107
81 509
81 418
81 189
81 160
81 356
81 329
81 42
81 460
81 106
81 249
81 105
81 21
81 357
81 183
81 549
81 671
81 679
81 212
81 137
81 685
81 365
81 494
81 533
81 420
81 283
81 16
81 424
81 363
81 46
81 211
81 169
81 303
81 170
81 362
81 128
81 166
81 301
81 108
81 215
81 911
81 222
81 569
81 490
81 28
81 3
81 412
81 419
81 400
81 162
81 932
81 431
82 83
82 84
82 86
82 366
82 283
82 211
82 552
82 531
82 68
82 410
82 161
82 46
82 329
82 179
82 81
82 203
82 303
82 187
82 21
82 462
82 10
82 129
82 567
82 63
82 740
82 550
82 296
82 77
82 555
82 226
82 420
82 544
82 490
82 209
82 4
82 1
82 340
82 493
82 41
82 163
82 453
82 474
82 173
82 107
82 612
82 189
82 151
82 186
82 325
82 5
82 540
82 445
82 357
82 783
82 245
82 371
82 132
82 424
82 20
82 385
82 154
82 310
82 353
82 147
82 526
82 426
82 168
82 104
82 647
82 170
82 143
82 225
82 853
82 327
82 454
82 377
82 58
82 53
82 362
82 23
82 419
82 169
82 36
82 106
82 314
82 188
82 127
82 356
82 549
82 137
82 263
82 368
82 219
82 730
82 287
82 212
82 458
82 338
82 494
82 199
82 142
82 158
82 116
82 281
82 152
82 748
82 854
82 131
82 96
82 601
82 932
82 693
82 372
82 160
82 373
82 594
82 752
82 376
82 255
82 279
82 641
82 438
82 509
82 345
82 681
82 708
82 99
82 963
82 563
83 82
83 496
83 372
83 601
83 366
83 494
83 86
83 154
83 233
83 107
83 424
83 71
83 84
83 431
83 373
83 285
83 199
83 420
83 282
83 121
83 142
83 249
83 214
83 280
83 41
83 458
83 612
83 212
83 533
83 288
83 152
83 492
83 340
83 296
83 13
83 96
83 81
83 114
83 453
83 106
83 163
83 368
83 273
83 484
83 113
83 557
83 209
83 101
83 20
83 329
83 44
83 433
83 143
83 211
83 203
83 856
83 46
83 478
83 236
83 243
83 63
83 141
83 615
83 162
83 87
83 546
83 594
83 365
83 118
83 260
84 162
84 50
84 49
84 71
84 82
84 288
84 83
84 433
84 70
84 58
84 282
84 31
84 366
84 111
84 142
84 715
84 431
84 510
84 601
84 780
84 474
84 254
84 585
84 166
84 549
84 624
84 160
84 48
84 485
84 664
84 105
84 544
84 336
84 112
84 453
84 305
84 442
84 252
84 113
84 752
84 555
84 144
84 754
84 249
84 180
84 662
84 419
84 811
84 444
84 582
84 1
84 127
84 494
84 86
84 107
84 546
84 272
84 229
84 615
84 57
84 73
84 13
84 326
84 478
84 399
84 598
84 209
84 134
84 211
84 268
84 18
84 411
84 243
84 244
84 317
84 727
84 425
84 235
84 174
84 558
84 492
84 119
84 218
85 226
85 370
85 312
85 1
85 74
85 142
85 151
85 310
85 86
85 313
85 146
85 309
85 18
85 467
86 189
86 453
86 106
86 510
86 540
86 362
86 223
86 68
86 83
86 107
86 114
86 82
86 103
86 444
86 494
86 131
86 132
86 117
86 417
86 96
86 184
86 310
86 172
86 714
86 47
86 400
86 480
86 601
86 74
86 458
86 392
86 238
86 85
86 141
86 506
86 20
86 222
86 280
86 190
86 368
86 113
86 197
86 30
86 690
86 81
86 283
86 326
86 256
86 44
86 438
86 504
86 584
86 67
86 12
86 84
86 69
86 508
86 421
86 620
86 328
86 90
86 259
86 623
86 21
86 225
86 201
86 70
86 366
86 10
86 203
86 662
86 138
86 226
86 142
86 525
86 708
86 687
86 100
86 586
86 38
86 58
86 445
86 14
86 395
86 425
86 553
86 485
86 681
86 274
86 121
86 526
86 180
86 304
86 23
86 765
86 129
86 212
86 163
86 87
86 546
86 572
86 598
86 521
86 206
86 531
86 105
86 533
86 251
86 484
86 822
86 236
86 218
86 430
86 65
86 151
86 573
86 19
86 261
86 36
86 271
86 285
86 306
86 706
86 855
86 191
86 33
86 753
86 170
86 196
87 41
87 50
87 484
87 533
87 453
87 155
87 363
87 255
87 490
87 106
87 427
87 58
87 212
87 163
87 105
87 424
87 643
87 249
87 13
87 189
87 82
87 190
87 665
87 160
87 236
87 223
87 77
87 282
87 506
87 547
87 23
87 459
87 187
87 222
87 107
87 183
87 545
87 412
87 166
87 283
87 28
87 161
87 303
87 371
87 256
87 296
87 351
87 129
87 233
87 20
87 426
87 215
87 325
87 83
87 859
87 252
87 552
87 856
87 812
87 304
87 243
87 208
87 132
87 21
87 419
87 974
87 128
87 473
87 326
87 84
87 280
87 661
87 448
87 42
87 45
87 61
88 303
88 302
88 304
88 369
88 149
88 183
88 810
88 252
88 129
88 924
88 271
88 336
90 91
90 106
90 13
90 474
90 329
90 143
90 328
90 409
90 66
90 425
90 86
90 107
90 478
90 459
90 49
91 469
91 514
91 478
91 64
91 90
91 143
91 356
91 108
91 328
91 357
91 183
91 96
91 306
91 107
91 160
91 110
91 989
91 419
91 95
92 20
92 22
92 100
92 538
92 259
92 678
92 287
92 498
92 530
92 260
92 173
92 426
92 86
92 818
92 723
92 152
92 685
92 373
92 238
92 105
92 160
93 41
93 172
93 129
93 143
93 183
93 64
93 78
93 493
93 438
93 714
93 526
93 458
93 494
93 424
93 426
93 121
93 576
93 543
93 14
93 86
93 306
93 197
93 40
93 301
93 940
93 473
93 16
93 337
93 28
93 417
93 443
93 29
93 30
93 116
93 32
93 261
93 114
93 482
93 36
93 136
93 169
93 39
93 135
93 545
93 563
93 883
93 291
95 201
95 41
95 64
95 51
95 199
95 200
95 128
95 351
95 205
95 60
95 309
95 143
95 122
95 593
95 197
95 280
95 204
95 123
95 61
95 183
95 203
95 776
95 918
95 6
95 442
96 170
96 252
96 135
96 591
96 211
96 375
96 610
96 57
96 303
96 619
96 169
96 339
96 417
96 438
96 64
96 21
96 6
96 304
96 337
96 86
96 92
96 88
96 48
96 100
96 209
96 325
96 131
96 123
96 113
96 245
96 369
96 261
96 251
96 76
96 816
96 400
96 370
96 481
96 31
96 427
96 91
96 338
96 66
96 327
96 329
96 474
96 114
96 408
96 236
96 46
96 20
96 340
96 151
96 119
96 423
96 336
96 136
96 367
96 173
96 259
96 326
96 101
96 728
96 121
96 847
96 924
96 13
96 242
96 351
99 107
99 139
99 100
99 371
99 101
99 937
99 640
99 768
99 173
99 82
100 429
100 92
100 117
100 371
100 107
100 102
100 96
100 494
100 618
100 640
100 768
100 99
100 185
100 5
100 687
100 86
100 424
100 434
100 937
100 935
100 560
101 100
101 380
101 371
101 353
101 65
101 83
101 131
101 419
101 96
101 581
101 108
102 2
102 412
102 100
102 101
102 6
102 743
102 516
102 411
102 192
102 812
102 3
102 5
102 832
103 104
103 377
103 526
103 232
103 283
103 296
103 86
103 368
103 546
103 150
103 60
103 179
103 385
103 320
103 392
103 390
103 395
103 215
103 741
103 389
103 162
103 182
103 521
104 103
104 368
104 61
104 181
104 388
104 389
104 18
104 602
105 252
105 249
105 473
105 434
105 82
105 493
105 147
105 121
105 569
105 533
105 142
105 384
105 203
105 351
105 16
105 5
105 42
105 427
105 212
105 163
105 154
105 256
105 21
105 233
105 48
105 329
105 362
105 183
105 155
105 771
105 424
105 166
105 282
105 546
105 612
105 41
105 360
105 667
105 474
105 106
105 431
105 243
105 748
105 242
105 158
105 508
105 543
105 128
105 303
105 400
105 114
105 358
105 326
105 550
105 492
105 285
105 859
105 420
105 544
105 129
105 453
105 169
105 199
105 589
105 405
105 371
105 44
105 346
105 86
105 152
105 10
105 412
105 170
105 347
105 607
105 215
106 187
106 189
106 268
106 190
106 42
106 21
106 20
106 551
106 459
106 671
106 589
106 434
106 365
106 147
106 340
106 690
106 160
106 582
106 46
106 81
106 212
106 329
106 87
106 371
106 549
106 550
106 74
106 211
106 183
106 462
106 222
106 107
106 717
106 420
106 424
106 467
106 73
106 771
106 828
106 358
106 357
106 283
106 372
106 454
106 885
106 83
106 142
106 756
106 68
106 641
106 5
106 64
106 280
106 114
106 607
106 546
106 28
106 1
107 113
107 114
107 137
107 99
107 161
107 174
107 256
107 283
107 357
107 338
107 474
107 687
107 77
107 173
107 46
107 367
107 453
107 45
107 58
107 280
107 128
107 665
107 170
107 254
107 314
107 480
107 164
107 405
107 106
107 132
107 493
107 662
107 506
107 19
107 180
107 184
107 282
107 375
107 494
107 152
107 158
107 418
107 837
107 216
107 428
107 8
107 3
107 531
107 87
107 35
107 281
107 366
107 82
107 828
107 303
107 31
107 16
107 430
107 57
107 44
107 343
107 362
107 327
107 400
107 356
107 550
107 163
107 131
107 589
107 544
107 489
107 427
107 233
107 211
107 36
107 162
107 2
107 736
107 748
107 284
107 730
107 410
107 252
107 708
107 279
107 209
107 79
107 434
107 129
107 896
107 172
107 395
107 448
107 142
107 429
107 183
107 139
107 237
107 481
107 319
107 236
107 69
107 932
107 856
107 70
107 954
107 963
107 78
107 438
107 166
107 226
107 64
107 179
107 468
107 591
107 214
107 568
107 201
107 206
107 222
108 109
108 66
108 110
108 111
108 190
108 509
108 375
108 420
108 328
108 473
108 81
108 91
108 474
108 143
108 356
108 90
108 69
108 64
108 183
108 67
108 652
108 476
108 93
108 155
109 51
110 111
110 121
110 474
110 388
111 108
112 108
112 375
112 357
112 469
113 114
113 160
113 417
113 263
113 444
113 423
113 245
113 442
113 547
113 171
113 51
113 339
113 32
113 485
113 301
113 48
113 168
113 478
113 76
113 329
113 26
113 176
113 426
113 169
113 177
113 36
113 84
113 367
113 419
113 914
113 976
113 925
113 983
113 919
113 981
113 556
113 570
114 155
114 113
114 129
114 263
114 256
114 365
114 340
114 169
114 527
114 245
114 283
114 367
114 371
114 78
114 531
114 208
114 4
114 2
114 3
114 137
114 46
114 183
114 363
114 212
114 444
114 486
114 547
114 339
114 160
114 82
114 434
114 443
114 47
114 76
114 485
114 106
114 166
114 419
114 249
114 168
114 128
114 211
114 107
114 229
114 405
114 686
114 152
114 81
114 767
114 303
114 255
114 170
114 184
114 609
114 366
114 96
114 44
114 533
114 116
114 847
114 83
114 655
114 30
114 892
114 173
114 896
114 375
114 925
114 35
114 261
114 473
114 87
114 919
114 976
114 39
114 36
114 411
114 981
114 420
114 135
116 169
116 338
116 336
116 136
116 251
116 47
116 170
116 339
116 438
116 245
116 135
116 261
116 531
116 79
116 123
116 151
116 329
116 30
116 128
116 280
116 32
116 35
116 437
116 39
116 171
116 40
116 370
116 160
116 38
116 816
116 753
116 74
116 263
116 23
116 114
116 183
116 655
116 460
116 129
116 548
116 367
116 914
116 118
116 420
116 987
117 118
117 189
117 100
117 121
117 409
117 211
117 223
117 170
117 107
118 117
118 13
118 20
118 84
118 420
118 209
118 128
118 183
118 549
118 116
118 279
118 409
118 21
118 756
118 121
118 748
118 83
118 326
118 667
118 263
120 218
120 232
120 101
120 377
120 18
121 82
121 105
121 546
121 209
121 71
121 84
121 83
121 427
121 41
121 142
121 174
121 283
121 249
121 371
121 127
121 531
121 114
121 128
121 169
121 296
121 187
121 36
121 18
121 63
121 107
121 180
121 44
121 489
121 303
121 367
121 28
121 23
121 147
121 58
121 285
121 183
121 137
121 366
121 612
121 189
121 792
121 453
121 493
121 117
121 186
121 4
121 132
121 423
121 550
121 544
121 226
121 767
121 552
121 543
121 281
121 357
121 372
121 223
121 411
121 714
121 184
121 326
121 480
121 661
121 401
121 649
121 280
121 203
121 601
121 345
121 340
121 77
121 329
121 365
121 88
121 160
121 548
121 228
121 99
121 438
121 747
121 172
121 526
121 426
121 93
121 261
121 232
121 78
121 308
121 252
121 29
121 647
121 748
121 245
121 568
121 236
121 242
121 96
121 726
121 759
121 151
121 353
121 890
121 190
121 12
121 424
121 719
121 520
121 74
121 395
121 356
121 125
121 179
121 338
121 158
121 20
121 255
121 263
121 51
121 116
121 152
121 118
121 752
121 492
121 363
121 594
121 254
121 79
121 131
121 494
121 86
121 859
121 215
121 31
121 963
121 208
121 425
121 473
121 433
121 458
121 534
122 123
122 351
122 376
122 191
122 60
122 231
122 656
122 95
122 515
122 468
122 168
122 411
122 36
123 122
123 103
123 172
123 61
123 338
123 438
123 41
123 169
123 116
123 96
123 180
123 31
123 95
123 302
123 275
123 170
123 339
123 987
123 411
123 26
125 353
125 5
125 283
125 708
125 371
125 618
125 640
125 99
125 937
125 166
125 424
126 13
126 211
126 286
126 58
126 586
126 271
126 137
126 723
126 411
126 2
126 57
126 812
126 131
126 63
126 54
126 638
127 128
127 129
127 20
127 189
127 105
127 92
127 1
127 107
127 36
127 613
127 546
128 86
128 205
128 197
128 51
128 41
128 129
128 28
128 474
128 371
128 16
128 256
128 42
128 143
128 283
128 365
128 526
128 215
128 196
128 166
128 200
128 107
128 21
128 340
128 367
128 63
128 155
128 346
128 82
128 172
128 93
128 218
128 249
128 362
128 183
128 199
128 157
128 79
128 327
128 486
128 44
128 30
128 36
128 106
128 118
128 1
128 81
128 23
128 5
128 557
128 6
128 734
128 13
128 203
128 494
128 343
128 430
128 377
128 445
128 121
128 900
128 209
128 87
128 974
128 607
128 955
128 14
128 490
128 52
128 255
129 183
129 270
129 168
129 114
129 365
129 172
129 493
129 486
129 458
129 128
129 585
129 413
129 211
129 371
129 329
129 249
129 568
129 434
129 180
129 41
129 42
129 401
129 93
129 542
129 280
129 526
129 426
129 53
129 292
129 291
129 46
129 63
129 296
129 212
129 346
129 405
129 176
129 308
129 515
129 186
129 28
129 438
129 340
129 611
129 694
129 615
129 81
129 303
129 19
129 21
129 351
129 399
129 363
129 544
129 107
129 557
129 283
129 419
129 214
129 113
129 367
129 460
129 123
129 231
129 285
129 187
129 188
129 184
129 105
129 65
129 922
129 562
129 473
129 161
129 282
129 484
129 377
131 132
131 411
131 271
131 87
131 717
131 163
131 282
131 58
131 101
131 481
131 532
131 64
131 586
131 63
131 832
131 160
131 283
131 949
131 612
131 252
131 859
131 2
131 208
131 552
131 212
131 285
131 698
131 373
131 126
131 646
131 82
131 932
131 613
132 411
132 285
132 271
132 166
132 283
132 305
132 63
132 424
132 256
132 532
132 160
132 54
132 158
132 5
132 236
132 371
132 106
132 82
132 121
132 242
132 192
132 142
132 249
132 366
132 738
132 243
132 86
132 208
132 217
132 252
132 405
132 87
132 301
132 599
132 949
132 375
134 553
134 482
134 173
134 521
134 598
134 340
134 74
134 5
134 867
135 136
135 251
135 96
135 337
135 40
135 443
135 338
135 860
135 23
135 5
135 914
135 478
136 135
136 41
136 116
136 437
136 170
136 169
136 151
136 150
137 138
137 175
137 174
137 208
137 57
137 107
137 365
137 520
137 59
137 303
137 301
137 121
137 63
137 571
137 54
137 408
137 20
137 81
137 665
137 305
137 4
137 129
137 46
137 552
137 329
137 126
137 285
137 166
137 420
137 183
137 139
137 160
137 859
137 546
137 880
137 6
137 252
137 155
137 58
137 371
137 679
137 412
137 88
137 434
137 445
138 58
138 211
138 286
138 481
138 2
138 305
138 815
138 408
138 285
138 63
138 685
138 126
138 86
138 54
138 252
138 4
138 412
138 420
138 301
138 3
138 990
138 880
138 921
138 214
139 46
139 445
139 164
139 429
139 581
139 448
139 461
139 45
139 592
139 273
139 282
139 216
139 334
139 107
139 933
139 274
139 572
141 142
141 332
141 430
141 466
141 64
141 529
141 498
141 362
141 496
141 674
141 44
141 566
141 86
141 161
141 729
141 51
141 499
141 14
141 266
141 265
141 249
141 438
141 166
141 488
141 358
141 6
141 502
141 81
141 573
141 9
141 856
141 608
141 360
141 661
141 602
141 525
141 407
141 533
141 5
141 951
141 913
141 420
141 107
141 398
142 187
142 576
142 282
142 41
142 183
142 366
142 121
142 427
142 248
142 254
142 152
142 667
142 31
142 172
142 474
142 571
142 19
142 367
142 338
142 82
142 4
142 58
142 508
142 434
142 340
142 216
142 166
142 184
142 291
142 467
142 375
142 20
142 77
142 756
142 828
142 180
142 856
142 493
142 173
142 64
142 577
142 106
142 593
142 357
142 418
142 100
142 125
142 494
142 86
142 896
142 280
142 263
142 129
142 45
142 963
142 160
142 222
142 859
142 271
142 10
142 211
142 81
142 531
142 28
142 44
142 296
142 1
142 256
142 46
142 68
143 51
143 375
143 484
143 41
143 474
143 357
143 419
143 328
143 93
143 413
143 91
143 548
143 201
143 469
143 86
143 166
143 480
143 10
143 197
143 128
143 172
143 325
143 18
143 82
143 482
143 714
143 42
143 384
144 254
144 186
144 492
144 283
144 434
144 614
146 0
146 52
146 67
146 66
146 187
146 1
146 299
146 615
146 18
146 81
146 189
146 601
146 368
146 177
146 21
146 183
146 226
146 533
146 118
147 249
147 42
147 105
147 152
147 434
147 189
147 1
147 329
147 85
147 106
147 612
147 615
147 166
147 82
147 121
147 233
147 107
147 254
147 546
147 366
147 301
147 644
147 142
147 13
147 83
147 932
147 859
147 620
148 149
148 468
148 402
148 344
148 191
148 262
148 150
148 401
148 179
148 224
148 225
149 148
149 277
149 180
149 157
149 191
149 344
149 420
149 64
149 655
149 575
149 206
149 160
149 490
149 621
149 347
149 179
149 6
149 150
149 656
149 31
150 103
150 377
150 104
150 181
150 397
150 148
150 381
150 741
150 301
150 149
150 122
150 179
150 389
150 561
151 438
151 35
151 34
151 29
151 39
151 30
151 417
151 136
151 261
151 748
151 85
151 655
151 121
151 86
151 32
151 142
151 816
151 90
152 147
152 467
152 121
152 492
152 212
152 41
152 183
152 433
152 366
152 114
152 283
152 107
152 166
152 160
152 340
152 84
152 288
152 116
152 87
152 431
152 74
152 612
152 49
152 82
152 187
152 21
152 458
152 395
152 494
152 437
154 155
154 363
154 105
154 434
154 647
154 183
154 107
154 546
154 209
154 493
154 114
154 932
154 492
154 106
154 236
154 424
154 954
154 282
154 963
155 215
155 114
155 208
155 284
155 285
155 512
155 429
155 520
155 87
155 31
155 128
155 106
155 1
155 223
155 211
155 209
155 46
155 337
155 420
155 18
155 326
155 81
155 189
155 19
155 95
155 183
155 855
155 849
155 739
155 181
155 108
155 22
155 147
155 589
155 44
155 104
155 593
155 157
155 377
155 329
156 179
156 907
156 122
156 734
157 396
157 64
157 377
157 379
157 376
157 5
157 397
157 156
157 345
157 346
157 350
157 483
157 668
157 352
157 61
157 179
157 178
157 296
157 104
157 381
157 389
157 320
157 383
157 283
157 385
157 386
157 390
157 398
157 60
157 150
157 308
157 391
157 182
157 344
157 149
157 128
157 384
157 284
157 347
157 734
157 472
158 209
158 238
158 242
158 599
158 639
158 240
158 174
158 233
158 319
158 235
158 236
158 3
158 63
158 4
158 2
158 137
158 105
158 58
158 121
158 931
158 927
158 963
158 567
159 233
159 237
159 238
159 235
159 242
159 243
159 244
159 105
159 434
159 301
159 303
159 460
159 931
159 160
159 926
159 927
159 166
160 161
160 23
160 190
160 113
160 263
160 18
160 284
160 180
160 61
160 319
160 338
160 42
160 367
160 377
160 106
160 280
160 41
160 320
160 478
160 81
160 453
160 51
160 104
160 4
160 147
160 233
160 114
160 103
160 35
160 467
160 336
160 576
160 446
160 380
160 474
160 557
160 417
160 401
160 173
160 242
160 150
160 163
160 128
160 251
160 352
160 212
160 748
160 179
160 343
160 90
160 181
160 685
160 342
160 249
160 68
160 63
160 481
160 356
160 78
160 345
160 184
160 189
160 129
160 520
160 294
160 142
160 270
160 611
160 375
160 183
160 69
160 388
160 201
160 232
160 562
160 236
160 138
160 216
160 730
160 20
160 400
160 21
160 428
160 2
160 87
160 426
160 329
160 127
160 169
160 166
160 786
160 292
160 137
160 548
160 164
160 326
160 448
160 158
160 285
160 381
160 170
160 828
160 47
160 65
160 262
160 206
160 435
160 12
160 690
160 3
160 275
160 424
160 539
160 188
160 666
160 736
160 306
160 591
160 610
160 19
160 351
160 197
160 91
160 303
160 369
160 427
160 8
160 410
160 40
160 493
160 245
160 30
160 149
160 29
160 36
160 504
160 148
160 327
160 152
160 310
160 832
160 10
160 818
160 209
160 778
160 141
160 54
160 66
160 519
160 107
160 302
160 283
160 83
160 57
160 549
160 526
160 193
160 498
160 552
160 621
160 551
160 67
160 240
160 747
160 261
160 156
160 312
160 395
160 353
160 533
160 589
160 892
160 896
160 108
160 223
160 431
160 418
160 582
160 506
160 252
160 279
160 308
160 573
160 268
160 512
160 282
160 287
160 859
160 454
160 117
160 406
160 717
160 501
160 255
160 162
160 222
160 445
160 963
160 821
160 123
160 82
160 96
160 194
160 826
160 799
160 339
160 490
160 601
160 228
160 429
160 496
160 857
160 346
161 569
161 267
161 363
161 44
161 666
161 141
161 160
161 405
161 504
161 496
161 87
161 707
161 661
161 555
161 754
161 265
161 129
162 288
162 84
162 492
162 190
162 433
162 549
162 163
162 249
162 58
162 2
162 63
162 643
162 31
162 90
162 184
162 50
162 412
162 389
162 468
162 212
162 181
162 186
162 645
163 72
163 212
163 106
163 82
163 121
163 105
163 601
163 282
163 366
163 162
163 87
163 612
163 83
163 377
163 107
163 154
163 86
163 373
163 643
163 411
163 20
163 934
163 5
163 932
163 42
163 420
163 296
164 216
164 46
164 388
164 429
164 174
164 107
164 592
164 395
164 428
164 322
164 448
164 160
164 45
164 447
164 424
164 96
164 273
164 170
164 735
164 137
164 520
164 281
164 430
166 424
166 283
166 132
166 742
166 128
166 431
166 434
166 107
166 559
166 168
166 187
166 84
166 160
166 142
166 366
166 86
166 214
166 576
166 159
166 174
166 137
166 74
166 209
166 147
166 58
166 493
166 141
166 243
166 129
166 158
166 2
166 506
166 156
166 880
166 178
166 573
166 20
166 194
166 882
166 666
166 139
166 249
166 856
166 351
166 19
166 28
166 376
166 786
166 380
166 818
166 799
166 303
166 218
166 641
166 69
166 127
166 296
166 61
166 83
166 81
166 950
166 212
166 252
166 242
166 320
166 429
166 446
166 143
166 1000
166 4
166 0
166 181
166 857
166 529
166 3
166 43
168 515
168 280
168 346
168 291
168 542
168 399
168 113
168 231
168 458
168 166
168 83
168 172
168 426
168 292
168 206
168 275
168 203
168 14
168 424
168 493
168 600
168 494
168 160
168 128
168 611
168 533
168 544
168 6
168 122
168 900
169 170
169 251
169 116
169 249
169 114
169 363
169 28
169 367
169 123
169 212
169 36
169 41
169 336
169 21
169 136
169 135
169 339
169 371
169 211
169 63
169 64
169 81
169 434
169 5
169 160
169 229
169 437
169 105
169 303
169 137
169 183
169 107
169 280
169 128
169 263
169 113
169 30
169 365
169 405
169 816
169 301
169 82
169 828
169 121
169 340
169 6
169 419
169 308
169 162
169 13
169 172
169 900
169 427
169 252
169 460
169 914
169 35
169 261
169 548
169 531
169 360
169 33
169 16
169 346
170 136
170 485
170 438
170 169
170 116
170 490
170 123
170 437
170 338
170 251
170 135
170 339
170 427
170 64
170 36
170 367
170 336
170 337
170 254
170 212
170 151
170 5
170 28
170 35
170 261
170 816
170 460
170 543
170 494
170 303
170 160
170 753
170 117
170 31
170 229
170 40
170 360
170 280
170 434
170 13
170 310
170 301
170 164
170 419
170 188
170 23
170 471
170 442
170 914
170 497
170 282
170 900
170 860
170 987
170 105
170 163
170 415
171 40
171 41
171 38
171 299
171 114
171 5
171 590
171 245
171 301
171 655
171 547
171 23
171 847
171 160
171 64
171 542
172 275
172 93
172 129
172 61
172 401
172 214
172 493
172 351
172 483
172 585
172 486
172 292
172 280
172 655
172 47
172 60
172 523
172 181
172 526
172 468
172 168
172 86
172 458
172 64
172 542
172 377
172 426
172 143
172 114
172 169
172 14
172 734
172 847
172 434
172 166
172 231
172 23
172 228
172 365
172 212
172 480
173 21
173 306
173 340
173 327
173 20
173 325
173 326
173 22
173 212
173 400
173 41
173 147
173 233
173 87
173 92
173 434
173 301
173 68
173 83
173 416
173 166
173 249
173 494
173 160
173 892
173 896
173 69
173 184
173 126
173 86
173 950
173 612
173 74
173 223
173 932
173 859
173 366
174 175
174 107
174 4
174 164
174 286
174 285
174 16
174 371
174 3
174 395
174 137
174 379
174 121
174 685
174 377
174 424
174 520
174 665
174 420
174 303
174 211
174 209
174 283
174 59
174 408
174 363
174 58
174 564
174 157
174 405
174 284
174 854
174 195
174 880
174 126
174 411
174 812
174 252
174 305
174 54
174 473
174 859
175 252
175 174
175 288
175 137
175 665
175 58
176 177
176 178
176 292
176 344
176 381
176 593
176 576
176 611
176 478
176 129
176 417
176 413
176 200
176 204
176 275
176 181
176 238
176 423
176 282
177 344
177 223
177 377
177 61
177 629
177 64
177 380
177 60
177 331
177 86
177 515
177 214
177 220
177 18
177 113
177 232
177 74
177 479
177 218
177 231
177 297
177 215
177 533
177 200
177 409
177 539
178 176
178 344
178 575
178 214
178 231
178 61
178 539
178 380
178 413
178 275
178 0
178 157
178 200
178 180
178 345
178 498
178 681
178 656
178 191
178 381
178 342
178 573
179 157
179 180
179 377
179 122
179 191
179 342
179 296
179 203
179 156
179 214
179 149
179 284
179 103
179 181
179 388
179 60
179 104
179 347
179 397
179 128
179 339
179 376
179 160
179 529
180 343
180 257
180 346
180 148
180 256
180 433
180 289
180 621
180 342
180 345
180 191
180 179
180 262
180 344
180 349
180 122
180 129
180 493
180 231
180 277
180 350
180 301
180 644
180 212
180 82
180 160
180 249
180 157
180 434
180 166
180 366
180 128
180 851
180 907
180 381
180 601
180 172
180 419
180 950
180 365
180 420
180 66
181 377
181 104
181 296
181 150
181 61
181 320
181 14
181 103
181 384
181 388
181 376
181 385
181 389
181 395
181 397
181 157
181 342
181 156
181 526
181 381
181 383
181 628
181 6
181 347
181 231
181 176
181 950
181 283
181 86
182 61
182 379
182 157
182 719
182 53
182 376
182 320
182 390
182 391
182 296
182 395
182 380
182 381
182 392
182 103
182 181
182 384
182 283
182 385
182 388
182 396
182 368
182 104
182 60
182 150
182 351
182 308
182 81
183 257
183 303
183 129
183 365
183 64
183 543
183 486
183 88
183 63
183 362
183 19
183 187
183 44
183 168
183 401
183 353
183 356
183 375
183 357
183 249
183 478
183 81
183 223
183 142
183 280
183 526
183 291
183 714
183 434
183 256
183 121
183 5
183 309
183 152
183 21
183 418
183 366
183 28
183 128
183 16
183 292
183 29
183 169
183 413
183 159
183 520
183 338
183 460
183 473
183 544
183 419
183 458
183 426
183 480
183 509
183 20
183 188
183 137
183 91
183 245
183 90
183 87
183 270
183 611
183 212
183 845
183 371
183 218
183 756
183 351
183 160
183 302
183 58
183 236
183 430
183 343
183 705
183 116
183 545
183 285
183 367
183 252
183 909
183 229
183 12
183 411
183 95
183 859
183 35
183 53
183 399
183 281
183 504
183 400
183 562
183 170
183 73
184 190
184 418
184 81
184 473
184 42
184 287
184 173
184 357
184 627
184 329
184 6
184 540
184 536
184 409
184 107
184 549
184 301
184 667
184 187
184 434
184 249
184 365
184 160
184 121
184 189
184 162
184 486
184 256
184 13
184 678
184 546
184 127
184 5
184 405
184 64
184 968
184 969
184 19
184 105
184 82
184 421
185 353
185 533
185 708
185 618
185 640
185 768
185 99
185 100
185 662
185 125
185 101
185 629
186 121
186 152
186 70
186 254
186 82
186 129
186 283
186 363
186 531
186 433
186 31
186 932
186 490
186 382
187 329
187 106
187 142
187 189
187 671
187 69
187 184
187 679
187 710
187 166
187 21
187 363
187 215
187 74
187 459
187 20
187 533
187 160
187 546
187 121
187 129
187 283
187 256
187 105
187 16
187 152
187 932
187 42
187 171
188 189
188 459
188 282
188 222
188 311
188 667
188 549
188 418
188 184
188 508
188 679
188 671
188 710
188 42
188 363
188 366
188 533
188 183
188 74
188 21
188 170
188 420
188 236
189 106
189 434
189 459
189 667
189 550
189 215
189 69
189 82
189 121
189 86
189 311
189 225
189 184
189 679
189 671
189 710
189 533
189 5
189 20
189 911
189 222
189 301
189 966
189 310
190 184
190 106
190 509
190 160
190 296
190 420
190 105
190 86
190 189
190 87
190 13
190 299
190 533
190 108
190 16
190 121
190 311
190 282
190 500
191 157
191 342
191 277
191 149
191 344
191 345
191 346
191 214
191 347
191 349
191 350
191 284
191 351
191 178
191 122
191 6
191 681
191 682
191 148
191 156
191 528
191 5
191 256
191 824
191 434
191 851
191 420
191 379
191 160
191 857
191 282
191 907
191 142
191 86
191 645
191 212
191 193
192 194
192 195
192 412
192 4
192 411
192 516
192 102
192 271
192 132
192 59
193 4
193 826
193 412
193 411
193 63
193 160
193 57
193 6
193 408
193 845
193 812
193 803
193 410
194 195
194 2
194 192
194 587
194 4
194 54
194 412
194 5
194 411
194 238
194 685
194 3
194 826
194 832
194 803
194 586
194 6
194 865
194 305
194 815
194 132
194 698
194 990
194 859
194 252
195 194
195 2
195 192
195 58
195 412
195 63
195 533
195 305
195 826
195 5
195 803
195 286
195 520
195 586
195 552
195 174
195 57
195 160
195 59
195 252
195 859
196 41
196 280
196 203
196 51
196 197
196 199
196 200
196 201
196 206
196 143
196 16
196 231
196 64
196 593
196 776
196 205
196 423
197 41
197 201
197 51
197 86
197 65
197 143
197 13
197 205
197 64
197 215
197 601
197 199
197 196
197 955
197 52
197 289
199 196
199 51
199 197
199 200
199 128
199 203
199 206
199 41
199 95
199 201
199 677
199 174
199 65
199 526
199 377
199 296
199 342
199 399
199 64
199 850
199 593
199 1
199 338
199 53
199 82
199 280
199 917
199 918
199 908
199 42
200 204
200 128
200 498
200 65
200 51
200 199
200 776
200 413
200 344
200 908
200 918
200 581
201 18
201 41
201 352
201 51
201 420
201 143
201 218
201 93
201 166
201 196
201 203
201 64
201 202
201 204
201 776
201 205
201 215
201 557
201 121
201 86
201 169
201 283
201 249
201 103
201 232
201 908
201 183
201 624
203 353
204 377
204 41
204 232
204 593
204 93
204 200
204 283
204 776
204 205
204 581
204 196
204 141
204 247
205 128
205 593
205 847
205 86
205 172
205 14
205 93
205 79
205 955
205 917
205 155
206 546
206 294
206 280
206 41
206 168
206 51
206 197
206 199
206 128
206 201
206 204
206 149
206 231
206 14
206 342
206 291
206 515
206 232
206 292
206 786
206 917
206 107
206 277
206 575
206 1000
208 285
208 195
208 137
208 194
208 4
208 63
208 272
209 236
209 233
209 58
209 121
209 238
209 158
209 240
209 243
209 183
209 211
209 303
209 283
209 319
209 96
209 155
209 494
209 301
209 71
209 84
209 83
209 273
209 160
209 5
209 420
209 13
209 128
209 16
209 64
209 546
209 637
209 639
209 587
209 271
209 424
209 126
209 154
209 252
209 285
209 371
209 88
209 286
209 601
209 845
209 924
209 107
209 977
211 54
211 481
211 208
211 286
211 371
211 552
211 281
211 117
211 611
211 612
211 560
211 338
211 107
211 209
211 57
211 129
211 58
211 303
211 249
211 132
211 411
211 4
211 5
211 138
211 661
211 304
211 252
211 48
211 480
211 236
211 155
211 212
211 738
211 636
211 698
211 532
211 271
211 152
211 389
211 340
211 604
211 169
211 114
211 81
211 506
211 16
211 646
211 571
211 215
211 214
211 308
211 462
211 283
211 83
211 683
211 489
211 734
211 764
211 194
211 430
211 705
211 754
211 84
211 88
211 44
211 412
211 859
211 21
211 13
211 375
211 469
211 845
211 924
211 243
211 932
211 990
211 128
212 249
212 69
212 21
212 121
212 256
212 509
212 147
212 508
212 462
212 28
212 114
212 81
212 144
212 283
212 82
212 152
212 58
212 340
212 170
212 550
212 459
212 576
212 589
212 296
212 490
212 223
212 544
212 106
212 174
212 255
212 489
212 493
212 180
212 163
212 41
212 549
212 420
212 91
212 492
212 268
212 173
212 63
212 365
212 44
212 87
212 612
212 405
212 160
212 83
212 363
212 183
212 546
212 162
212 494
212 431
212 86
212 434
212 142
212 453
212 427
212 932
212 131
212 411
212 191
212 856
212 68
212 726
212 641
212 235
214 180
214 345
214 483
214 377
214 172
214 176
214 83
214 157
214 191
214 681
214 460
214 342
214 343
214 346
214 352
214 301
214 177
214 128
214 280
214 536
214 206
214 232
214 179
214 284
214 215
215 5
215 650
215 311
215 42
215 223
215 1
215 74
215 309
215 248
215 313
215 73
215 341
215 128
215 756
215 400
215 690
215 434
215 549
215 459
215 187
215 560
215 188
215 283
215 296
215 159
215 747
215 201
215 220
215 366
215 64
215 87
215 183
215 82
215 306
215 301
215 331
215 197
215 460
215 150
215 218
215 121
215 114
215 81
215 177
215 214
215 340
215 347
215 249
215 96
216 446
216 139
216 272
216 274
216 448
216 46
216 45
216 64
216 107
216 509
216 273
216 301
217 433
217 366
217 70
217 71
217 288
217 643
217 50
217 282
217 431
217 142
217 121
217 49
217 303
218 196
218 459
218 95
218 482
218 340
218 1
218 307
218 308
218 177
218 309
218 215
218 248
218 120
218 220
218 310
218 85
218 311
218 222
218 313
218 223
218 0
218 226
218 73
218 317
218 228
218 199
218 82
218 5
218 183
218 549
218 297
218 219
218 268
218 402
219 79
219 60
219 132
220 177
220 223
220 215
220 128
220 23
220 204
222 215
222 188
222 459
222 560
222 219
222 223
222 18
222 314
222 225
222 226
222 365
222 467
222 86
222 311
222 400
222 255
222 309
222 142
222 282
222 1
222 543
222 911
222 189
222 0
222 315
222 21
222 107
222 301
222 607
222 527
223 86
223 74
223 18
223 105
223 183
223 117
223 309
223 560
223 106
223 366
223 166
223 215
223 282
223 331
223 64
223 314
223 624
223 330
223 225
223 152
223 87
223 83
223 20
223 317
223 222
223 121
223 313
223 0
223 365
223 228
223 468
223 218
223 311
223 73
223 142
223 208
224 365
224 160
224 309
224 64
224 313
225 311
225 282
225 1
225 189
225 409
225 283
225 459
225 301
225 18
225 74
225 86
225 460
225 312
225 494
225 226
225 215
225 390
226 106
226 317
226 82
226 340
226 371
226 128
226 256
226 365
226 313
226 434
226 218
226 696
226 283
226 443
226 74
226 121
226 107
226 223
226 86
226 892
226 228
226 166
226 105
226 419
226 533
226 72
228 377
229 48
229 119
229 28
229 39
229 30
229 489
229 721
229 434
229 170
229 536
229 366
229 494
229 143
229 338
229 84
229 183
231 232
231 280
231 191
231 692
231 122
231 645
231 434
231 168
231 277
231 292
231 621
231 257
231 377
231 74
231 262
231 249
231 526
231 343
231 206
231 797
231 196
231 871
231 730
231 841
231 655
231 178
231 65
231 129
231 426
231 351
231 181
231 347
231 466
231 201
231 214
232 231
232 103
232 52
232 556
232 284
232 557
232 61
232 41
232 51
232 368
232 204
232 277
232 280
232 380
232 483
232 320
232 515
232 312
232 141
232 473
232 65
232 707
232 426
232 265
232 266
232 501
232 358
232 804
232 484
232 498
232 525
232 263
232 575
232 611
232 526
232 113
232 177
232 176
232 226
232 120
232 206
232 18
232 178
232 939
232 397
232 121
232 64
232 576
232 6
232 486
232 1000
233 209
233 235
233 236
233 159
233 237
233 238
233 240
233 242
233 243
233 252
233 532
233 434
233 288
233 546
233 121
233 460
233 83
233 212
233 82
233 88
233 586
233 612
233 366
233 166
233 282
233 494
233 601
233 433
233 86
233 84
233 142
233 70
233 158
233 63
233 474
233 58
233 101
233 828
233 174
233 284
235 238
235 610
235 209
235 303
235 244
235 159
235 158
235 242
235 420
235 243
235 930
235 963
235 360
235 627
236 209
236 235
236 244
236 319
236 363
236 159
236 3
236 587
236 240
236 132
236 233
236 63
236 434
236 249
236 96
236 208
236 158
236 5
236 963
237 162
237 244
237 319
237 159
237 6
237 424
237 243
237 174
237 5
237 107
237 932
237 926
237 236
238 239
238 159
238 2
238 158
238 412
238 506
238 86
238 194
238 211
238 302
238 243
238 0
238 209
238 242
238 601
238 930
238 237
238 963
238 499
238 176
238 700
238 525
238 558
240 237
240 209
240 211
240 158
240 242
240 424
240 57
240 159
240 931
240 963
242 158
242 209
242 106
242 105
242 243
242 236
242 238
242 121
242 240
242 303
242 977
242 926
242 522
243 271
243 375
243 507
243 434
243 233
243 411
243 58
243 57
243 209
243 132
243 236
243 613
243 235
243 244
243 237
243 238
243 239
243 240
243 412
243 63
243 963
243 615
243 87
243 252
243 373
243 42
243 604
244 238
244 301
244 235
244 233
244 237
244 615
244 158
244 209
244 252
244 420
244 810
244 963
244 311
245 48
245 263
245 116
245 443
245 326
245 76
245 96
245 82
245 417
245 444
245 547
245 423
245 47
245 485
245 183
245 160
245 486
245 337
245 365
245 329
246 247
246 266
246 608
246 765
246 44
246 499
246 421
246 547
247 19
247 267
247 661
247 707
247 498
247 352
248 74
248 142
248 696
248 260
248 259
248 73
248 459
248 330
248 309
249 212
249 256
249 105
249 169
249 129
249 363
249 434
249 42
249 106
249 430
249 607
249 424
249 81
249 82
249 506
249 128
249 365
249 147
249 222
249 44
249 183
249 493
249 405
249 474
249 114
249 462
249 530
249 63
249 327
249 58
249 473
249 16
249 21
249 28
249 438
249 166
249 121
249 5
249 427
249 243
249 420
249 602
249 419
249 84
249 533
249 856
249 353
249 282
249 142
249 303
249 236
249 46
249 310
249 356
249 490
249 208
249 184
249 489
249 218
249 180
249 64
249 2
249 12
249 19
249 187
249 589
249 431
249 23
249 340
249 173
249 357
249 201
249 132
249 163
249 18
249 137
249 203
249 131
249 154
249 161
249 747
249 615
249 3
249 286
249 179
249 172
249 548
249 833
249 421
249 170
249 388
249 950
249 443
251 169
251 336
251 40
251 23
251 438
251 32
251 340
251 123
251 339
251 135
251 136
251 437
251 417
251 338
251 370
251 30
251 860
251 172
251 914
251 900
252 166
252 212
252 58
252 48
252 105
252 304
252 88
252 408
252 132
252 2
252 412
252 303
252 59
252 63
252 281
252 84
252 82
252 154
252 520
252 160
252 114
252 81
252 169
252 845
252 159
252 685
252 625
252 237
252 209
252 854
252 273
252 238
252 286
252 411
252 481
252 271
252 46
252 174
252 244
252 235
252 243
252 859
252 571
252 924
252 832
252 138
252 193
252 812
252 5
252 826
252 195
252 6
252 131
252 3
252 283
252 117
252 611
252 66
252 389
252 661
252 338
252 480
252 83
252 803
252 162
252 552
252 740
252 282
252 932
252 236
252 419
252 849
254 137
254 226
254 107
254 282
254 31
254 152
254 665
254 492
254 58
254 74
254 345
254 340
254 173
254 531
254 77
254 493
254 129
254 128
254 41
254 296
254 329
254 474
254 21
254 114
254 367
254 28
254 23
254 44
254 371
254 46
254 233
254 303
254 252
254 63
254 147
254 81
254 462
254 174
254 255
254 106
254 458
254 216
254 283
254 366
254 859
254 121
254 211
255 249
255 363
255 256
255 712
255 607
255 282
255 434
255 5
255 114
255 371
255 63
255 169
255 303
255 137
255 1
255 215
255 365
255 366
255 222
255 405
255 545
255 419
255 83
255 160
255 472
255 42
255 307
256 357
256 211
256 296
256 132
256 107
256 425
256 114
256 493
256 105
256 191
256 186
256 365
256 531
256 154
256 249
256 304
256 4
256 183
256 280
256 51
256 30
256 169
256 474
256 152
256 87
257 180
257 426
257 183
257 401
257 526
257 568
257 543
257 64
259 72
259 260
259 20
259 74
259 248
259 92
259 400
259 106
259 21
259 73
259 69
259 327
259 127
259 818
259 536
259 83
259 509
259 324
260 74
260 248
260 297
260 400
260 69
260 325
260 336
260 331
260 728
260 93
260 173
260 509
260 563
261 438
261 116
261 48
261 151
261 367
261 96
261 119
261 655
261 427
261 121
261 51
261 160
261 171
261 35
261 494
261 980
261 82
261 29
261 986
262 215
262 656
262 402
262 191
262 122
262 231
262 349
262 160
262 814
262 148
262 907
262 344
262 903
263 114
263 160
263 417
263 423
263 245
263 76
263 485
263 527
263 113
263 442
263 47
263 171
263 96
263 419
263 367
263 438
263 486
263 280
263 426
263 169
263 168
263 405
263 82
263 116
263 686
263 531
263 301
263 847
263 232
263 283
263 303
263 925
263 919
263 976
263 411
263 981
263 29
263 249
265 19
265 267
265 12
265 525
265 608
265 407
265 360
265 498
265 570
265 359
265 533
265 9
265 8
265 141
265 500
265 804
265 661
265 555
265 957
265 503
265 161
265 856
266 608
266 61
266 565
266 466
266 720
266 754
266 232
266 525
266 407
266 500
266 533
266 950
267 19
267 265
267 498
267 608
267 12
267 266
268 106
268 459
268 1
268 215
268 311
268 212
268 74
268 248
268 301
268 160
268 309
268 73
268 549
268 313
268 19
268 218
268 419
268 421
268 405
268 934
268 340
268 407
270 129
270 280
270 611
270 28
270 486
271 272
271 243
271 132
271 131
271 366
271 64
271 717
271 448
271 412
271 698
271 738
271 303
271 137
271 408
271 528
271 209
271 183
271 54
271 63
271 13
271 481
271 57
271 46
271 45
271 142
271 252
271 2
271 301
271 859
271 283
271 949
271 281
271 282
271 400
271 10
271 256
271 474
272 273
272 274
272 592
272 462
272 164
272 448
272 45
272 186
272 63
272 309
272 612
272 563
272 84
272 310
272 428
272 183
272 617
272 216
272 6
272 137
272 710
272 446
272 812
272 149
273 322
273 46
273 429
273 461
273 274
273 447
273 448
273 45
273 4
273 2
273 819
273 272
273 164
273 216
273 271
273 209
273 812
273 301
274 592
274 21
275 276
275 172
275 515
275 413
275 562
275 493
275 458
275 129
275 168
275 813
275 60
275 232
275 368
275 226
275 176
275 123
275 177
275 426
275 479
275 65
275 419
276 426
276 459
277 296
277 232
277 280
277 214
277 180
277 14
277 515
277 203
277 206
277 621
277 636
279 107
279 118
279 590
280 231
280 196
280 168
280 14
280 284
280 129
280 292
280 574
280 53
280 377
280 107
280 232
280 494
280 172
280 206
280 424
280 363
280 181
280 228
280 114
280 367
280 426
280 179
280 296
280 18
280 169
280 128
280 51
280 170
280 47
280 219
280 116
280 294
280 483
280 160
280 113
280 572
280 515
280 13
280 121
280 734
280 148
280 351
280 575
280 256
280 82
280 249
280 303
280 81
280 199
280 922
280 283
280 473
280 420
281 137
281 552
281 58
281 63
281 208
281 408
281 174
281 698
281 194
281 195
281 286
281 571
281 54
281 160
281 13
281 738
281 121
281 412
281 845
281 6
281 305
281 683
281 615
281 57
281 718
281 252
281 131
281 16
281 424
281 82
281 481
281 949
281 880
281 859
281 932
281 271
281 105
281 990
281 206
282 283
282 212
282 121
282 16
282 254
282 74
282 589
282 559
282 142
282 493
282 188
282 166
282 64
282 225
282 427
282 366
282 58
282 474
282 84
282 371
282 132
282 183
282 173
282 288
282 373
282 375
282 401
282 357
282 196
282 184
282 163
282 665
282 139
282 10
282 131
282 531
282 223
282 41
282 160
282 233
282 105
282 31
282 255
282 87
282 280
282 174
282 405
282 340
282 209
282 612
282 222
282 560
282 494
282 248
282 641
282 106
282 880
282 249
282 45
282 311
282 35
282 191
282 856
282 356
282 268
282 411
282 218
282 812
282 79
282 28
282 533
282 129
282 190
282 932
282 170
282 181
283 308
283 282
283 121
283 365
283 107
283 142
283 5
283 105
283 132
283 373
283 166
283 366
283 16
283 589
283 288
283 106
283 303
283 181
283 389
283 296
283 395
283 14
283 377
283 368
283 104
283 693
283 752
283 86
283 160
283 594
283 21
283 249
283 388
283 162
283 174
283 152
283 492
283 420
283 577
283 4
283 411
283 376
283 314
283 81
283 58
283 424
283 434
283 114
283 379
283 128
283 320
283 44
283 2
283 28
283 169
283 201
283 426
283 51
283 356
283 329
283 187
283 932
283 453
283 129
283 255
283 493
283 252
283 280
283 726
283 137
283 3
284 160
284 377
284 232
284 351
284 277
284 231
284 301
284 5
284 749
284 180
284 734
284 157
284 292
284 342
284 681
284 206
284 107
284 472
284 79
285 286
285 305
285 552
285 174
285 155
285 303
285 533
285 2
285 408
285 520
285 281
285 532
285 132
285 58
285 683
285 774
285 698
285 412
285 54
285 426
285 738
285 88
285 83
285 96
285 254
285 302
285 183
285 271
285 586
285 164
285 304
285 5
285 160
285 138
285 571
285 625
285 129
285 65
285 166
285 107
285 854
285 379
285 252
285 105
285 209
285 949
285 168
285 172
285 401
285 562
285 458
285 990
285 420
286 174
286 58
286 137
286 3
286 285
286 211
286 138
286 126
286 571
286 183
286 305
286 329
286 815
286 520
286 6
286 880
286 411
286 129
286 412
286 410
286 252
286 14
287 69
287 184
287 92
287 20
287 81
287 106
287 68
287 536
287 418
287 160
287 162
287 494
287 9
288 162
288 217
288 84
288 252
288 71
288 70
288 433
288 104
288 283
288 282
288 152
288 212
288 549
288 756
288 431
288 613
288 58
288 19
288 83
288 571
288 371
289 350
291 181
291 206
291 280
291 142
291 168
291 294
291 458
291 256
291 543
291 542
291 493
291 14
291 93
292 176
292 377
292 284
292 611
292 231
292 280
292 523
292 493
292 426
292 515
292 129
292 950
292 822
292 1000
292 502
293 19
293 504
293 506
293 8
293 365
293 141
293 44
293 360
293 238
294 203
294 342
294 214
294 526
294 301
294 129
294 280
294 291
294 543
294 572
294 268
296 377
296 385
296 387
296 203
296 379
296 256
296 380
296 105
296 107
296 395
296 103
296 454
297 49
297 248
297 260
297 73
297 341
297 74
297 177
297 905
297 311
297 309
297 86
297 506
299 184
299 171
299 473
299 551
299 590
299 700
299 6
299 418
299 546
299 509
299 287
299 968
301 248
301 420
301 244
301 362
301 137
301 118
301 624
301 284
301 183
301 113
301 155
301 337
301 428
301 147
301 655
301 281
301 209
301 63
301 473
301 159
301 225
301 294
301 228
301 857
301 445
301 25
301 81
301 100
301 61
301 268
301 641
301 327
301 29
301 199
301 166
301 52
301 312
301 368
301 170
301 747
301 132
301 22
301 93
301 35
301 108
301 138
301 168
301 189
301 180
301 931
301 28
301 423
301 8
302 96
302 88
302 438
302 419
302 238
302 160
302 183
302 123
302 566
303 304
303 183
303 57
303 610
303 285
303 371
303 211
303 63
303 137
303 630
303 369
303 363
303 212
303 434
303 59
303 129
303 520
303 281
303 28
303 21
303 114
303 340
303 169
303 367
303 329
303 159
303 249
303 58
303 166
303 271
303 738
303 424
303 5
303 235
303 845
303 571
303 252
303 301
303 412
303 909
303 280
303 87
303 544
303 362
303 81
303 411
303 244
303 405
303 242
303 859
303 82
303 379
304 96
304 211
304 420
304 369
304 302
304 82
304 54
304 256
304 252
304 16
304 424
304 271
304 58
304 317
305 2
305 63
305 285
305 211
305 57
305 552
305 412
305 408
305 698
305 6
305 54
305 132
305 195
305 738
305 411
305 685
305 4
305 137
305 481
305 84
305 138
305 243
305 281
305 718
305 845
305 271
305 520
305 865
305 516
305 683
305 194
305 489
305 604
305 208
305 494
305 131
305 949
305 880
305 42
306 69
306 723
306 326
306 728
306 825
306 141
306 20
306 91
306 160
306 509
306 68
306 215
306 434
306 325
306 10
306 400
306 113
306 329
306 81
306 169
306 51
306 550
306 549
306 93
306 366
306 478
306 86
306 593
307 376
307 74
307 226
307 18
307 114
307 310
307 317
307 206
307 314
307 85
307 301
307 177
307 696
307 22
308 283
308 320
308 21
308 438
308 434
308 396
308 129
308 424
308 6
308 494
308 166
308 430
308 462
308 169
308 532
308 121
308 523
309 215
309 222
309 74
309 223
309 297
309 5
309 183
309 95
309 42
309 612
309 0
309 18
309 226
309 73
309 615
309 177
309 218
309 120
309 310
309 85
309 313
309 224
309 314
309 225
309 317
309 341
309 514
310 78
310 1
310 340
310 317
310 313
310 82
310 105
310 249
310 494
310 18
310 170
310 366
310 160
310 85
310 932
310 272
311 459
311 215
311 188
311 268
311 16
311 420
311 74
311 309
311 494
311 222
311 190
311 218
311 424
311 184
311 297
311 73
311 301
311 756
312 377
312 366
312 311
312 317
312 256
312 74
312 301
312 841
312 494
313 73
313 215
313 560
313 623
313 628
314 85
314 317
314 160
314 107
314 21
314 105
314 189
314 184
314 312
314 255
314 405
314 222
314 215
314 219
314 223
314 283
314 166
314 256
314 161
314 365
314 434
314 52
314 310
314 106
314 764
314 307
314 74
314 138
317 85
317 312
317 366
317 310
317 226
317 314
317 248
317 116
317 313
317 223
317 18
317 73
317 485
317 1
317 409
319 545
320 381
320 160
320 351
320 616
320 628
320 379
320 104
320 389
320 397
320 181
320 60
320 232
320 156
320 350
320 483
320 434
320 734
320 296
320 868
320 157
320 349
320 179
320 368
320 380
320 947
322 139
322 273
322 334
322 735
322 533
322 592
322 272
322 461
322 434
322 446
322 448
322 428
322 429
322 933
322 929
324 43
324 19
324 44
324 63
324 10
324 466
324 558
324 720
324 2
325 69
325 327
325 96
325 82
325 173
325 65
325 143
325 21
325 509
325 945
325 29
326 173
326 306
326 543
326 245
326 733
326 143
326 21
326 923
326 13
326 10
326 20
326 87
326 118
326 325
326 444
327 416
327 173
327 5
327 6
327 325
327 10
327 473
327 105
327 141
327 259
327 733
327 160
327 728
327 107
327 894
327 328
327 945
327 326
327 158
328 329
328 459
328 494
328 108
328 91
328 474
328 143
328 66
328 375
328 391
329 410
329 66
329 328
329 143
329 356
329 108
329 375
329 478
329 90
329 474
329 208
329 129
329 81
329 42
329 419
329 568
329 91
329 183
329 184
329 107
329 351
329 106
329 105
329 434
329 114
329 211
329 63
329 169
329 46
329 286
329 652
329 476
329 69
329 28
329 137
329 113
329 255
329 160
329 87
329 576
329 514
329 303
329 128
329 83
329 4
329 365
329 249
329 20
329 486
329 510
330 73
330 74
330 438
330 612
331 459
331 166
331 358
331 19
331 362
331 764
331 225
331 223
331 260
331 707
331 74
331 299
332 699
332 502
332 407
332 504
332 505
332 700
332 359
332 523
332 720
332 529
332 76
334 164
334 592
334 274
334 46
334 933
334 556
336 337
336 116
336 136
336 135
336 339
336 400
336 84
336 438
336 92
336 646
337 336
337 96
337 135
337 169
337 420
337 123
337 116
337 301
337 160
337 437
337 5
337 16
337 245
337 367
337 30
337 883
337 424
337 23
337 117
338 116
338 123
338 28
338 160
338 337
338 438
338 169
338 724
338 336
338 135
338 252
338 365
338 170
338 211
338 339
338 367
338 485
338 434
338 113
338 31
338 263
338 107
338 183
338 96
338 114
338 48
338 35
338 914
338 121
338 987
338 16
338 420
338 372
339 96
339 251
339 547
339 169
339 79
339 38
339 337
339 151
339 443
339 30
339 32
339 261
339 34
339 35
339 336
339 136
339 338
339 171
339 40
339 135
339 170
339 340
339 438
339 437
339 26
339 29
339 33
339 113
339 818
339 987
339 883
339 179
340 134
340 114
340 531
340 521
340 553
340 173
340 78
340 86
340 598
340 554
340 371
340 251
340 107
340 212
340 179
340 310
340 547
340 497
340 160
340 79
340 434
340 314
340 438
340 16
340 848
340 593
340 143
340 325
340 121
340 280
340 129
340 811
340 274
340 217
340 282
340 867
340 494
340 105
340 46
340 922
340 473
340 932
341 74
341 309
341 215
341 311
341 222
341 297
341 174
342 139
342 352
342 377
342 103
342 376
342 181
342 214
342 296
342 203
342 231
342 179
342 95
342 60
342 575
342 776
342 294
342 797
342 180
342 157
342 593
342 851
342 350
342 681
342 284
342 172
342 345
342 228
342 483
342 107
342 340
342 493
342 41
342 381
342 149
342 156
342 257
342 129
342 147
343 180
343 183
343 157
343 128
343 214
343 137
344 149
344 177
344 178
344 349
344 176
344 231
344 191
344 656
344 200
344 377
344 21
345 483
345 214
345 346
345 681
345 352
345 179
345 191
345 61
345 178
345 152
345 591
346 294
346 168
346 180
346 342
346 345
346 206
346 291
346 181
346 351
346 5
346 172
346 6
346 21
346 409
346 396
347 262
347 179
347 307
347 157
347 61
347 180
347 681
347 160
347 181
347 122
347 349
347 568
349 402
349 5
349 149
349 262
349 344
349 148
349 122
349 156
349 347
349 160
349 64
349 907
350 593
350 204
350 342
350 377
350 861
350 351
350 320
350 180
350 191
350 851
350 251
351 320
351 214
351 345
351 122
351 191
351 377
351 179
351 157
351 363
351 329
351 371
351 296
351 203
351 28
351 303
351 283
351 256
351 106
351 129
351 365
351 249
351 155
351 352
351 280
351 734
351 1
351 95
351 420
351 496
352 41
352 350
352 180
352 345
352 546
352 60
352 351
352 347
352 214
352 681
352 656
352 483
352 851
352 346
353 125
353 100
353 99
353 708
353 687
353 101
353 709
353 640
353 796
353 87
353 121
353 365
353 434
353 592
353 935
353 768
353 937
353 106
353 160
353 479
356 357
356 329
356 107
356 81
356 612
356 106
356 108
356 160
356 474
356 91
356 405
356 16
356 509
356 362
356 366
356 549
356 424
356 121
356 828
356 896
356 142
356 282
356 301
356 319
357 474
357 454
357 212
357 5
357 64
357 568
357 81
357 375
357 112
357 91
357 108
357 282
357 16
357 183
357 68
357 480
357 142
357 121
357 82
357 615
357 486
357 301
357 105
358 406
358 44
358 566
358 573
358 805
358 502
358 503
358 407
358 729
358 504
358 332
358 331
358 8
358 707
358 498
358 161
358 525
358 9
358 12
358 530
358 141
358 608
358 602
358 700
358 459
358 247
358 765
358 105
358 506
358 699
358 621
359 558
359 141
359 421
359 496
359 533
359 498
359 466
359 699
359 608
359 265
359 267
359 754
359 499
359 9
359 525
359 332
359 700
359 44
359 951
359 127
360 498
360 265
360 569
360 105
360 570
360 141
360 293
360 170
360 235
360 161
362 44
362 293
362 86
362 666
362 365
362 183
362 141
362 602
362 128
362 434
362 256
362 496
362 283
362 81
362 16
362 107
362 356
362 69
362 28
362 280
362 129
362 51
362 856
362 466
362 661
362 401
362 430
362 121
362 5
362 12
362 337
363 256
363 211
363 106
363 236
363 365
363 249
363 154
363 63
363 329
363 303
363 296
363 81
363 351
363 215
363 169
363 367
363 531
363 384
363 152
363 661
363 155
363 208
363 16
363 314
363 434
363 87
363 508
363 577
363 331
365 451
365 58
366 58
366 282
366 105
366 142
366 367
366 74
366 372
366 317
366 233
366 662
366 147
366 474
366 184
366 226
366 531
366 445
366 19
366 18
366 188
366 368
366 166
366 187
366 82
366 255
366 494
366 305
366 356
366 68
366 424
366 512
366 109
366 190
366 180
366 152
366 310
366 174
366 285
366 30
366 218
366 256
366 859
366 134
366 83
366 950
366 311
366 856
366 131
366 596
366 693
366 812
366 121
366 205
367 28
367 114
367 169
367 151
367 438
367 655
367 16
367 36
367 329
367 424
367 434
367 340
367 129
367 44
367 21
367 366
367 280
367 121
367 105
367 892
367 405
367 245
367 375
367 417
367 107
367 155
367 32
367 337
367 30
367 82
367 420
367 273
368 103
368 377
368 320
368 86
368 83
368 397
368 366
368 14
368 375
368 112
368 392
368 160
368 275
368 181
368 301
368 146
368 376
368 150
368 1
368 896
368 123
369 630
369 96
369 88
369 304
370 40
370 47
370 38
370 48
370 85
370 547
370 33
370 113
370 442
370 245
370 171
370 226
370 116
370 25
370 26
370 443
370 135
370 339
370 151
371 211
371 63
371 114
371 129
371 490
371 360
371 340
371 282
371 101
371 249
371 99
371 106
371 365
371 212
371 132
371 51
371 363
371 21
371 285
371 236
371 46
371 121
371 708
371 640
371 160
371 174
371 405
371 256
371 137
371 3
371 87
371 768
371 105
371 183
371 329
371 81
371 351
371 424
372 433
372 86
372 134
372 83
372 431
372 594
372 70
372 107
372 366
372 32
372 64
372 58
372 283
372 121
372 87
372 494
372 42
372 490
373 283
373 372
373 714
373 706
373 420
373 180
373 571
373 166
373 411
373 243
373 528
373 93
373 515
373 184
373 194
373 92
373 134
373 121
373 311
373 964
373 306
373 112
373 607
374 500
374 501
374 503
374 407
374 505
374 358
374 5
374 166
375 143
375 356
375 329
375 469
375 108
375 110
375 91
375 476
375 474
375 112
375 478
375 96
375 282
375 6
375 494
375 107
375 424
375 160
375 183
375 81
375 142
375 889
375 860
375 243
375 16
375 154
375 21
375 28
375 114
375 340
375 169
375 367
375 301
375 411
375 105
375 756
375 59
376 377
376 103
376 397
376 296
376 60
376 6
376 64
376 203
376 122
376 283
376 157
376 389
376 841
376 18
376 160
376 182
376 308
376 387
376 388
376 390
376 61
376 391
376 368
376 104
376 395
376 632
376 985
377 103
377 104
377 150
377 157
377 296
377 60
377 160
377 86
377 572
377 156
377 593
377 204
377 320
377 351
377 1
377 280
377 95
377 219
377 148
377 129
377 468
377 526
377 312
377 548
377 491
377 292
377 379
377 380
377 381
377 382
377 384
377 283
377 386
377 387
377 388
377 395
377 396
377 398
377 277
377 575
377 352
377 741
377 659
377 172
377 199
377 189
377 0
377 490
377 347
377 128
377 365
377 249
377 458
377 220
377 294
377 748
377 182
377 907
377 120
377 147
377 959
377 745
377 961
377 839
377 65
377 257
377 546
379 157
379 6
379 389
379 397
379 174
379 296
379 395
379 376
379 308
379 380
379 381
379 61
379 392
379 320
379 382
379 383
379 283
379 386
379 387
379 388
379 391
379 398
379 377
379 368
379 104
379 64
379 719
379 164
379 63
379 628
379 191
379 182
379 5
379 384
379 285
379 608
380 296
380 61
380 178
380 157
380 120
380 101
380 65
380 376
380 385
380 387
380 14
380 182
380 160
380 200
380 562
380 283
380 656
380 103
380 596
381 177
381 176
381 479
381 320
381 179
381 397
381 377
381 160
381 181
381 61
381 156
381 548
381 515
381 180
381 686
381 609
382 509
383 395
385 296
385 380
385 387
385 377
385 390
385 395
385 389
385 376
385 103
385 160
385 231
385 6
386 152
387 296
387 385
387 380
387 229
387 368
387 377
387 389
387 104
387 388
387 523
387 392
387 60
387 182
387 381
387 118
387 667
387 283
387 42
387 366
387 849
387 150
387 950
387 120
388 164
388 104
388 379
388 376
388 157
388 179
388 296
388 128
388 150
388 387
388 280
388 249
388 211
389 486
389 64
389 157
389 385
389 390
389 182
389 104
389 376
389 397
389 387
389 585
389 326
389 14
389 179
390 14
390 181
390 389
390 377
390 385
390 491
390 526
390 226
390 391
390 103
390 438
390 380
390 756
390 268
390 379
390 381
390 157
390 392
390 397
390 283
390 387
390 368
390 104
390 60
390 308
391 368
391 776
391 182
391 320
391 390
391 61
391 305
392 104
392 387
392 232
395 157
395 390
395 174
395 389
395 494
395 385
395 296
395 104
395 201
395 164
395 719
395 121
395 82
395 86
395 368
395 376
395 64
395 908
395 209
397 53
397 376
397 390
397 320
397 719
397 379
397 632
397 6
397 64
397 157
397 380
397 381
397 458
397 181
397 122
397 103
397 841
397 52
397 546
397 179
397 392
399 493
399 183
399 93
399 199
399 325
400 260
400 86
400 336
400 215
400 259
400 20
400 173
400 728
400 106
400 64
400 160
400 222
400 96
400 107
400 105
400 74
400 678
400 327
400 10
400 81
400 68
400 509
400 411
401 621
401 425
401 493
401 172
401 426
401 183
401 714
401 562
401 44
401 362
401 129
401 365
401 65
401 542
401 249
401 430
401 543
401 664
401 835
401 873
401 294
401 874
401 705
401 791
401 276
401 0
402 220
405 160
405 42
405 365
405 107
405 748
405 102
405 249
405 489
405 44
405 329
405 28
405 128
405 303
405 114
405 296
405 490
405 81
405 340
405 226
405 129
405 169
405 796
405 174
405 367
405 108
405 256
405 288
405 64
405 283
405 356
405 362
405 5
405 314
405 161
405 828
405 282
405 158
405 46
405 121
405 438
405 531
405 263
405 63
405 183
405 601
405 434
405 889
405 892
405 173
405 375
405 896
405 83
405 304
405 116
405 856
405 493
405 543
405 280
405 274
405 419
405 132
405 194
405 268
405 4
405 3
405 143
405 78
405 237
406 44
406 502
406 503
406 504
406 358
406 500
406 501
406 407
406 525
406 499
406 252
407 44
407 502
407 503
407 406
407 358
407 566
407 526
407 141
407 623
408 59
408 3
408 305
408 516
408 2
408 285
408 281
408 194
408 5
408 6
408 4
408 412
408 137
408 58
408 211
408 552
408 57
408 586
408 434
408 126
408 96
408 533
408 685
408 208
408 411
408 571
408 462
408 832
408 215
408 826
408 625
408 192
408 193
408 473
408 859
409 118
409 13
409 90
409 117
409 418
409 326
409 51
409 280
409 306
409 184
409 292
409 128
409 35
409 29
409 135
409 272
409 448
409 2
409 38
409 590
409 336
409 624
409 325
409 390
409 421
409 497
409 81
409 171
409 417
409 69
409 169
409 515
409 93
409 555
409 65
409 474
409 504
409 420
409 945
409 47
409 357
409 23
409 39
409 371
409 346
409 338
409 506
409 667
409 151
409 36
410 329
410 82
410 356
410 286
410 202
411 58
411 271
411 717
411 285
411 211
411 516
411 6
411 282
411 194
411 283
411 698
411 481
411 2
411 3
411 192
411 54
411 864
411 286
411 4
411 738
411 408
411 209
411 88
411 174
411 281
411 126
411 308
411 462
411 193
411 506
411 195
411 498
411 434
411 304
411 604
411 683
411 460
411 166
411 303
411 114
411 163
411 116
411 261
411 976
411 728
411 986
411 987
411 867
411 900
411 375
411 981
411 252
411 400
411 816
411 170
411 859
411 123
411 438
412 4
412 2
412 305
412 192
412 195
412 137
412 58
412 3
412 408
412 63
412 625
412 59
412 586
412 434
412 285
412 102
412 6
412 271
412 87
412 193
412 865
412 665
412 138
412 832
412 884
412 859
412 738
412 587
412 243
412 303
412 256
412 162
412 286
412 971
412 845
412 281
412 105
412 81
412 826
413 542
413 172
413 129
413 178
413 275
413 493
413 176
413 200
413 93
413 232
413 177
413 526
413 426
413 714
413 65
415 852
415 192
416 327
416 144
417 443
417 444
417 113
417 151
417 76
417 547
417 171
417 40
417 23
417 29
417 245
417 47
417 48
417 30
417 485
417 160
417 251
417 86
417 107
417 437
417 176
417 162
417 79
417 32
417 895
417 5
417 136
417 367
417 494
417 976
418 299
418 190
418 69
418 473
418 183
418 129
418 314
418 68
418 747
418 6
418 287
418 142
418 509
418 467
418 549
418 400
419 554
419 652
419 474
419 143
419 78
419 434
419 493
419 263
419 340
419 74
419 211
419 154
419 497
419 79
419 445
419 482
419 183
419 473
419 490
419 81
419 44
419 128
419 14
419 460
419 337
419 199
419 591
419 168
419 214
419 256
419 106
419 184
419 468
419 526
419 848
419 129
419 280
419 161
419 5
419 489
419 28
419 45
419 169
419 531
419 714
419 611
419 462
419 64
419 63
419 255
419 113
419 180
419 356
419 131
419 121
419 296
419 91
419 84
419 239
420 402
420 301
420 283
420 568
420 13
420 63
420 434
420 304
420 21
420 174
420 64
420 326
420 531
420 641
420 83
420 18
420 363
420 30
420 249
420 362
420 494
420 854
420 106
420 139
420 166
420 121
420 79
420 128
420 69
420 409
420 581
420 20
420 669
420 244
420 624
420 235
420 458
420 105
420 5
420 60
420 116
420 82
420 408
420 186
420 141
420 12
420 305
420 430
420 184
420 337
420 325
420 68
420 19
420 190
420 222
420 114
420 280
420 189
420 293
420 99
420 520
420 367
420 28
420 505
421 496
421 525
421 434
421 856
421 86
421 268
421 365
423 263
423 370
423 438
423 303
423 444
423 113
423 121
423 245
423 96
423 482
423 13
423 976
423 981
423 527
423 847
423 925
423 442
423 547
423 48
423 301
423 176
423 416
424 45
424 212
424 82
424 121
424 434
424 308
424 283
424 74
424 280
424 174
424 109
424 429
424 367
424 474
424 311
424 256
424 44
424 233
424 87
424 612
424 493
424 31
424 783
424 4
424 78
424 46
424 274
424 748
424 527
424 543
424 114
424 245
424 338
424 326
424 240
424 462
424 509
424 99
424 132
424 69
424 68
424 183
424 282
424 356
424 329
424 237
424 128
424 164
424 211
424 738
424 30
424 641
424 880
424 151
424 209
424 405
424 249
424 58
424 100
424 304
424 950
424 142
424 125
424 337
424 401
424 483
425 664
425 257
425 401
425 621
425 873
425 294
425 874
425 430
425 526
425 835
425 574
425 129
425 562
425 4
425 256
425 598
426 425
426 401
426 568
426 285
426 280
426 92
426 168
426 172
426 129
426 486
426 114
426 263
426 572
426 423
426 65
426 283
426 166
426 714
426 86
426 121
426 82
426 232
426 458
426 160
426 391
426 106
427 615
427 151
427 170
427 119
427 261
427 367
427 282
427 438
427 121
427 655
427 82
427 48
427 31
427 460
427 105
427 434
427 86
427 142
427 431
427 23
427 249
427 160
427 169
427 162
427 40
427 932
427 107
427 87
427 546
428 429
428 301
428 45
428 274
428 46
428 272
428 322
428 592
429 447
429 448
429 139
429 46
429 428
429 45
429 100
429 216
429 6
429 273
429 322
429 301
429 107
429 933
429 929
429 274
429 160
430 249
430 141
430 498
430 160
430 365
430 506
430 246
430 360
430 14
430 5
430 166
430 8
430 19
430 765
430 504
430 362
430 280
430 211
430 462
430 12
430 565
430 533
430 183
430 411
430 129
430 128
430 501
430 65
430 956
430 420
430 326
431 50
431 217
431 71
431 4
431 84
431 160
431 152
431 166
431 231
433 70
433 288
433 71
433 162
433 84
433 49
433 50
433 405
433 144
433 431
434 215
434 23
434 460
434 365
434 128
434 161
434 19
434 129
434 533
434 163
434 255
434 81
434 106
434 471
434 189
434 551
434 256
434 233
434 473
434 467
434 187
434 147
434 303
434 371
434 401
434 280
434 154
434 114
434 41
434 368
434 35
434 170
434 367
434 420
434 166
434 184
434 190
434 243
434 509
434 87
434 183
434 474
434 329
434 544
434 308
434 28
434 169
434 63
434 83
434 296
434 16
434 338
434 478
434 116
434 21
434 531
434 148
434 229
434 61
434 30
434 647
434 132
434 200
434 99
434 421
434 459
434 320
434 53
434 612
434 121
434 191
434 856
434 252
434 275
434 828
434 506
434 283
434 405
434 92
434 427
434 859
434 172
434 411
434 3
434 203
434 548
434 607
434 137
434 431
434 554
435 147
435 647
435 127
435 160
435 616
435 793
435 920
435 519
435 942
435 163
435 270
436 28
437 135
437 136
437 5
437 116
437 531
437 38
437 436
437 26
437 482
437 339
437 169
437 443
437 30
437 816
437 261
437 336
437 900
437 564
438 40
438 170
438 151
438 123
438 6
438 87
438 96
438 251
438 28
438 116
438 113
438 338
438 33
438 31
438 308
438 261
438 38
438 545
438 23
438 423
438 302
438 340
438 482
438 337
438 365
438 249
438 263
438 86
438 93
438 141
438 336
438 339
438 531
438 54
438 390
438 34
438 860
438 444
438 590
438 405
438 64
438 26
438 74
438 136
438 436
438 330
438 892
438 107
438 987
438 599
442 113
442 35
442 545
442 36
442 96
442 48
442 70
443 47
443 96
443 85
443 38
443 113
443 48
443 417
443 263
443 444
443 442
443 547
443 114
443 245
443 485
443 171
443 226
443 847
443 251
443 366
443 135
443 29
443 26
443 339
443 116
443 261
443 919
443 427
443 976
443 925
443 437
444 76
444 47
444 245
444 114
444 48
444 438
444 417
444 443
444 847
444 442
444 547
444 262
445 581
445 557
445 340
445 848
445 301
445 77
445 128
445 531
445 13
445 79
445 82
445 917
445 256
445 468
446 429
446 447
446 45
446 592
446 428
446 301
446 272
447 139
447 46
447 592
447 473
447 799
447 498
447 428
447 45
447 273
447 322
447 933
448 272
448 46
448 45
448 40
448 139
448 446
448 429
448 592
448 428
448 334
448 322
448 273
448 617
448 274
448 164
448 735
448 812
448 847
448 484
448 933
448 494
448 87
448 16
448 421
448 168
451 496
451 265
451 566
451 569
451 466
451 360
451 558
453 160
453 212
453 472
453 255
453 615
453 189
453 166
453 121
453 142
453 283
453 546
453 607
453 932
453 745
453 170
453 420
453 504
454 357
454 189
454 107
454 82
454 106
454 203
456 405
456 164
458 129
458 600
458 275
458 493
458 168
458 86
458 623
458 254
458 397
458 5
458 172
458 647
458 515
458 813
458 377
458 183
458 526
458 291
458 420
458 82
458 6
458 426
458 714
458 543
458 460
459 268
459 190
459 661
459 756
459 331
459 215
459 21
459 498
459 177
459 74
459 467
459 19
459 25
459 565
459 358
459 106
459 187
459 0
459 1
459 218
459 223
459 589
459 421
459 226
459 340
459 116
460 81
460 467
460 233
460 473
460 462
460 419
460 615
460 249
460 170
460 214
460 679
460 533
460 244
460 328
460 189
460 129
460 183
460 211
460 256
460 607
460 347
460 401
461 45
461 139
461 428
461 447
461 429
461 118
461 13
461 46
461 735
461 819
461 322
461 592
461 216
462 463
462 561
462 256
462 212
462 701
462 106
462 308
462 21
462 20
462 272
462 249
462 121
462 211
462 419
462 506
462 5
462 35
463 462
463 141
466 421
466 529
466 496
466 498
466 9
466 608
466 649
466 506
466 406
466 362
466 602
466 265
466 359
466 358
466 500
466 504
466 893
466 64
466 6
466 5
466 160
466 499
466 407
466 804
466 231
466 488
466 510
466 53
466 86
467 152
467 434
467 460
467 20
467 160
467 86
467 166
467 222
467 509
467 107
467 459
467 332
468 362
469 375
469 66
469 90
469 211
469 411
471 434
471 421
471 170
471 256
471 371
472 406
473 29
473 19
473 189
473 434
473 184
473 6
473 667
473 81
473 418
473 509
473 545
473 249
473 30
473 301
473 299
473 232
473 183
473 498
473 32
473 150
473 256
473 44
473 28
473 106
473 113
473 371
473 14
473 581
473 87
473 93
473 63
473 35
473 493
473 129
473 459
473 340
473 531
473 46
473 211
473 490
473 489
473 767
473 963
473 3
473 280
473 362
473 326
473 367
473 421
473 412
473 121
474 329
474 478
474 110
474 357
474 128
474 166
474 111
474 494
474 328
474 87
474 90
474 469
474 142
474 366
474 107
474 186
474 233
474 301
474 256
474 121
474 81
474 96
474 84
474 560
474 546
474 409
474 493
474 13
474 950
474 105
474 427
474 41
474 42
474 932
474 859
476 474
476 112
476 83
478 474
478 357
478 375
478 543
478 329
478 143
478 66
478 108
478 110
478 90
478 113
478 434
478 183
478 514
478 160
478 176
478 13
478 282
478 121
478 652
478 325
478 306
479 533
480 282
480 549
480 106
480 166
480 69
480 92
480 494
480 21
480 20
480 375
480 671
480 74
480 509
480 223
480 183
480 508
480 184
480 39
480 86
480 667
480 142
480 550
480 601
480 107
481 211
481 208
481 6
481 738
481 57
481 54
481 4
481 2
481 132
481 138
481 13
481 698
481 411
481 63
481 305
481 586
481 421
481 96
481 59
481 552
481 685
481 412
481 83
481 3
481 107
481 949
481 950
481 131
481 845
481 281
481 102
482 340
482 41
482 74
482 134
482 218
482 419
482 79
482 48
482 438
482 331
482 553
482 228
482 679
482 576
482 339
482 64
482 531
482 483
482 598
482 162
482 289
482 129
482 301
482 143
482 160
483 377
483 214
483 345
483 157
483 764
483 61
483 320
483 351
483 232
483 851
483 172
483 342
483 128
483 255
483 280
483 435
484 87
484 563
484 572
484 494
484 515
484 822
484 694
484 86
484 64
484 292
484 129
485 170
485 113
485 423
485 417
485 245
485 114
485 74
485 166
485 387
485 86
485 655
486 183
486 129
486 201
486 114
486 292
486 714
486 327
486 664
486 426
486 5
486 303
486 81
486 44
486 28
486 128
486 280
486 362
486 356
486 329
486 430
486 353
486 21
486 188
486 286
486 36
486 410
486 63
486 184
486 357
486 478
486 365
486 51
486 35
486 14
486 417
486 232
488 141
488 421
488 498
488 496
488 499
488 635
489 6
489 64
489 16
489 21
489 644
489 212
489 405
489 157
489 256
489 771
489 229
489 365
489 82
489 132
489 408
489 121
489 419
489 305
489 106
489 105
489 249
489 359
490 365
490 106
490 434
490 371
490 377
490 405
490 121
490 459
490 607
490 82
490 419
490 460
490 256
490 356
490 128
491 168
491 163
491 453
491 117
491 127
491 390
491 548
491 490
491 377
491 624
491 170
491 753
492 254
492 144
492 152
492 64
492 212
492 48
492 5
492 256
492 105
492 107
492 678
492 950
492 612
492 160
492 932
492 111
493 129
493 280
493 413
493 168
493 172
493 275
493 93
493 458
493 270
493 568
493 434
493 41
493 419
493 183
493 254
493 212
493 121
493 105
493 249
493 87
493 424
493 526
493 292
493 426
493 460
493 817
493 585
493 611
493 14
493 486
493 522
493 563
493 835
493 82
493 84
493 543
493 600
493 282
493 107
493 283
493 291
493 473
493 377
494 83
494 86
494 107
494 510
494 283
494 128
494 395
494 515
494 474
494 377
494 506
494 328
494 280
494 340
494 375
494 141
494 190
494 466
494 197
494 106
494 480
494 504
494 12
494 68
494 170
494 601
494 187
494 209
494 576
494 308
494 229
494 366
494 93
494 108
494 70
494 458
494 310
494 543
494 662
494 25
494 590
494 90
494 160
494 222
494 168
494 191
494 714
494 225
494 215
494 261
494 58
494 281
494 121
494 212
494 372
494 152
494 509
494 690
494 417
494 539
494 593
494 226
494 312
494 252
494 932
494 113
494 287
494 139
496 421
496 529
496 141
496 498
496 451
496 362
496 560
496 488
496 64
496 268
496 506
496 922
497 562
497 79
497 482
497 424
497 548
497 57
498 506
498 43
498 359
498 496
498 569
498 360
498 92
498 141
498 266
498 200
498 265
498 421
498 529
498 246
498 267
498 738
498 8
498 197
498 293
498 447
498 9
498 407
498 525
498 358
498 562
498 602
498 707
498 700
498 61
498 160
498 73
498 74
498 44
498 538
498 232
498 406
498 446
498 501
498 332
498 14
498 12
498 247
498 473
498 86
498 64
498 804
498 411
498 58
498 720
498 51
498 573
498 205
498 956
498 967
498 593
498 765
498 922
498 856
498 488
498 503
499 44
499 500
499 502
499 503
499 407
499 504
499 506
499 525
499 61
499 182
499 608
499 602
499 9
499 141
499 566
499 699
499 232
499 332
499 19
499 913
499 238
499 246
499 86
499 510
500 44
500 499
500 502
500 504
500 506
500 569
500 332
500 501
500 466
500 699
500 143
501 160
501 121
502 406
502 506
502 44
502 500
502 503
502 407
502 505
502 43
502 358
502 374
502 538
503 506
503 44
503 271
504 160
504 293
504 430
504 246
504 765
504 8
504 358
504 301
504 86
504 141
504 533
504 856
504 569
504 466
504 699
504 499
504 501
504 502
504 407
504 506
504 359
504 510
504 967
504 183
505 584
506 64
506 44
506 365
506 141
506 249
506 362
506 19
506 494
506 2
506 105
506 430
506 238
506 498
506 674
506 510
506 9
506 406
506 434
506 496
506 504
506 87
506 166
506 856
506 500
506 661
506 160
506 358
506 366
506 107
506 86
506 409
506 913
506 293
506 418
507 189
508 212
508 549
508 68
508 747
508 189
508 679
508 184
508 299
508 325
508 260
508 259
508 710
508 473
508 418
508 480
509 667
509 184
509 418
509 508
509 549
509 107
509 81
509 325
509 68
509 306
509 260
509 678
509 189
509 952
509 972
509 160
509 13
509 710
509 540
509 480
509 400
509 259
509 713
509 212
509 82
509 969
509 190
510 141
510 754
510 9
510 19
510 86
510 494
510 661
510 504
510 84
510 12
510 499
512 155
512 160
512 162
512 469
514 108
514 91
514 65
515 168
515 64
515 176
515 458
515 593
515 6
515 413
515 292
515 129
515 493
515 206
515 277
515 275
516 408
516 5
516 6
516 411
516 102
516 192
516 195
516 305
519 459
519 21
519 85
519 222
519 405
519 106
519 259
519 315
519 189
519 228
519 637
520 92
520 137
520 59
520 155
520 174
520 4
520 303
520 2
520 22
520 685
520 20
520 285
520 286
520 571
520 58
520 5
520 815
520 183
520 6
520 552
520 532
520 845
520 160
520 13
520 971
520 164
520 812
520 991
520 381
521 583
521 482
521 554
521 598
521 553
521 217
521 823
521 615
521 86
521 154
522 523
522 563
523 522
523 172
523 280
523 829
523 543
523 14
523 706
523 134
523 64
525 499
525 406
525 9
525 466
525 729
525 505
525 421
525 358
525 332
525 44
525 504
525 699
525 359
525 266
525 86
525 951
525 967
525 913
525 510
525 700
525 500
525 238
525 327
526 103
526 129
526 576
526 128
526 399
526 377
526 515
526 199
526 493
526 172
526 542
526 568
526 498
526 655
526 543
526 93
526 407
526 232
526 231
526 912
526 148
527 48
527 96
527 6
527 5
527 64
527 547
527 444
527 47
528 64
528 5
528 6
528 644
528 191
528 305
528 392
528 271
528 373
529 359
529 421
529 506
529 525
529 498
529 141
529 504
529 9
529 720
529 496
529 362
529 699
529 44
529 332
529 922
529 499
530 161
530 538
530 92
530 344
531 78
531 445
531 420
531 114
531 79
531 366
531 434
531 437
531 256
531 686
531 438
531 482
531 419
531 556
531 497
531 77
531 169
531 142
531 183
531 367
533 285
533 266
533 515
533 498
533 25
533 32
533 434
533 106
533 265
533 280
533 128
533 82
533 188
533 530
533 63
533 856
533 164
533 362
533 302
533 306
533 173
533 371
533 582
533 326
533 116
533 310
533 262
533 201
533 46
533 822
533 458
533 667
533 430
533 493
533 20
533 19
533 504
533 141
533 236
533 408
533 114
533 190
533 35
533 28
533 342
533 169
533 520
533 168
533 4
533 194
533 187
533 581
533 172
533 508
533 18
533 401
533 252
533 249
533 562
533 572
533 499
533 406
533 204
533 590
533 350
533 483
533 679
533 171
533 525
533 320
533 950
533 186
533 67
533 154
533 155
533 607
533 451
534 544
534 244
536 86
536 184
536 20
536 214
536 189
536 546
536 473
536 166
536 601
536 383
538 326
538 530
538 173
538 306
538 733
538 723
539 78
539 178
540 82
540 189
540 509
540 434
542 399
542 413
542 168
542 543
542 256
542 419
542 275
542 458
542 129
542 526
542 172
542 401
542 559
543 183
543 688
543 542
543 292
543 168
543 576
543 430
543 121
543 87
543 425
543 249
543 401
543 209
543 405
543 105
543 399
543 113
543 291
543 467
544 542
544 129
544 212
544 183
544 6
544 817
544 107
544 105
544 82
544 607
544 146
545 29
545 25
545 438
545 473
545 26
545 785
545 34
545 28
545 23
545 183
545 462
545 486
546 58
546 144
546 23
546 187
546 87
546 615
546 723
546 211
546 474
546 828
546 158
546 154
546 226
546 742
546 77
546 427
546 255
546 533
546 184
546 30
546 526
546 367
546 812
546 208
546 963
546 856
546 82
546 362
546 44
546 954
546 252
546 129
546 509
546 462
546 106
546 803
546 215
547 40
547 370
547 113
547 417
547 48
547 87
547 263
547 847
548 170
548 1
548 78
548 531
548 21
548 405
548 106
548 256
548 203
548 377
548 371
548 46
548 129
548 143
548 434
548 381
548 283
548 152
548 116
548 497
548 365
548 438
549 480
549 509
549 184
549 508
549 678
549 1
549 694
549 68
549 325
549 162
549 288
549 276
549 81
549 473
549 215
549 661
549 418
549 356
549 362
549 82
549 855
549 187
549 779
549 287
549 188
549 800
549 799
549 67
549 747
549 551
549 679
549 671
549 778
549 146
549 818
549 540
549 118
549 460
549 934
549 19
549 326
549 371
549 201
550 187
550 19
550 106
550 21
550 44
550 107
550 105
550 288
550 480
550 126
551 723
551 733
551 509
551 299
551 533
551 303
551 21
551 679
552 211
552 571
552 63
552 208
552 54
552 520
552 137
552 532
552 126
552 121
552 87
552 131
552 515
552 256
553 554
553 340
553 598
553 86
553 429
554 521
554 340
554 29
554 615
555 754
555 44
555 141
555 347
556 483
556 330
556 531
556 113
556 456
557 160
557 581
557 201
557 395
557 205
557 917
557 44
558 9
558 529
558 376
559 282
559 160
559 131
560 42
560 106
560 20
560 222
560 775
560 328
560 229
560 336
560 48
560 39
560 496
560 0
560 74
560 215
560 40
560 341
560 211
560 362
560 19
560 358
560 329
560 913
560 922
560 142
560 856
560 73
560 1
560 1002
560 276
560 218
560 21
560 313
560 607
560 436
561 555
562 65
562 497
562 426
562 401
562 200
562 438
562 493
562 275
562 232
562 413
562 177
562 425
562 714
562 14
562 6
562 183
562 265
563 572
563 14
563 484
563 522
563 493
563 86
563 584
563 129
563 6
563 822
563 706
563 93
563 82
563 297
564 208
564 126
564 12
564 242
564 174
564 263
564 304
564 686
564 303
564 10
564 638
564 164
564 748
564 589
564 114
564 158
564 81
564 63
564 340
564 338
564 281
564 397
565 266
565 804
565 9
565 430
565 136
566 43
566 141
566 8
566 666
566 421
566 570
566 247
566 707
566 700
566 187
567 843
568 129
568 401
568 65
568 357
568 458
568 493
568 426
568 1
568 526
568 168
568 562
568 81
568 425
568 121
568 498
569 360
569 161
569 570
569 105
569 602
569 43
569 358
569 44
569 249
569 12
569 430
569 674
569 754
569 707
569 739
569 8
569 9
569 362
569 778
569 359
569 504
569 558
569 85
570 661
570 161
570 265
570 12
570 8
570 247
570 823
571 491
572 484
572 350
572 593
572 82
572 434
572 939
572 294
572 40
573 566
573 8
573 166
573 358
573 498
573 141
573 86
573 525
574 78
575 275
576 314
577 375
577 578
577 366
577 249
577 282
577 377
577 625
581 41
581 557
581 205
581 139
581 51
581 531
581 78
581 497
581 77
581 200
581 473
581 308
581 310
581 101
581 445
581 217
582 189
582 106
582 418
582 160
582 473
582 508
582 671
582 667
582 417
583 173
584 531
585 84
585 544
585 168
585 129
585 706
585 508
587 3
587 236
587 194
587 2
587 4
587 832
587 58
587 170
589 459
589 434
589 106
589 671
589 365
589 283
589 83
589 212
589 215
589 142
589 249
589 607
589 424
589 160
589 271
589 105
589 256
589 228
590 28
590 30
590 35
590 13
590 23
590 171
590 438
590 443
590 299
590 26
590 33
590 163
591 96
591 160
591 83
591 142
592 429
592 461
592 139
592 446
592 760
592 428
592 447
592 617
592 272
592 274
592 448
592 735
592 216
592 46
592 38
592 353
592 100
593 197
593 377
593 214
593 822
593 205
593 200
593 340
593 95
593 199
593 572
593 342
593 498
593 907
593 201
593 974
593 918
594 647
596 282
596 301
596 218
596 366
596 20
598 521
598 134
598 553
598 86
599 708
599 304
599 96
599 211
599 63
599 208
599 158
599 209
599 931
599 481
600 401
600 129
600 585
601 166
601 107
601 57
601 283
601 82
601 480
601 141
601 121
601 256
602 616
602 700
602 61
602 699
602 525
602 365
602 183
602 496
602 499
602 238
602 497
604 389
605 71
607 249
607 255
607 420
607 419
607 170
607 548
607 128
607 105
607 87
607 544
607 460
607 243
607 471
607 42
607 421
607 256
607 279
608 466
608 267
608 720
608 406
608 499
608 566
608 529
608 266
608 265
608 61
608 332
608 232
608 498
609 30
610 96
610 420
610 472
610 255
610 57
610 459
611 486
611 292
611 211
611 270
611 64
611 6
611 129
611 419
611 232
611 183
611 168
611 650
612 49
612 121
612 356
612 340
612 828
612 474
612 2
612 71
612 217
612 152
612 272
612 212
612 347
612 162
612 427
612 458
613 614
613 243
613 747
613 365
615 106
615 546
615 460
615 168
615 152
615 492
615 142
615 155
615 244
615 87
615 357
615 493
615 21
615 252
615 249
615 144
615 64
615 800
615 714
615 521
615 309
615 412
615 459
615 223
616 602
616 533
616 459
616 1
616 374
617 618
617 412
618 617
618 19
619 96
619 613
619 57
619 303
619 5
619 433
620 322
621 401
621 231
621 149
621 284
621 277
621 589
623 791
623 86
623 103
624 13
624 182
627 420
627 473
627 667
627 189
628 481
629 600
632 397
632 719
632 243
635 137
635 4
635 520
635 286
635 63
635 285
635 208
635 185
637 195
638 640
638 158
638 356
638 10
638 340
638 329
638 81
638 480
638 12
638 589
638 44
638 169
638 896
638 126
640 114
640 371
640 185
641 163
641 420
641 160
641 282
641 301
641 1
641 106
641 946
641 82
641 240
643 49
643 515
644 489
644 180
644 5
644 296
644 166
644 950
644 528
644 349
644 427
645 156
646 583
647 420
647 685
647 21
647 93
647 256
647 8
649 729
649 121
649 246
649 466
650 215
652 329
652 108
652 478
652 163
652 649
655 183
655 280
655 172
655 35
655 419
655 149
655 223
655 231
655 28
655 980
655 427
655 12
661 502
661 19
661 267
661 754
661 459
661 44
661 570
661 700
661 249
661 161
661 211
661 121
661 856
661 420
661 12
661 666
661 510
661 13
661 8
661 265
661 87
661 505
661 69
662 166
662 371
662 100
662 84
662 618
664 93
664 515
664 428
665 4
665 58
665 142
665 63
665 175
665 254
665 685
665 272
665 2
665 6
665 212
665 303
665 412
665 639
666 362
666 267
666 141
666 161
666 12
666 367
666 823
666 856
666 951
666 617
667 550
667 549
667 161
667 184
667 105
667 81
667 69
667 509
668 216
669 615
669 420
669 930
669 341
671 187
671 81
671 69
671 582
671 106
671 690
671 375
671 68
674 12
674 267
674 506
674 510
674 19
674 504
674 9
674 569
674 707
674 558
674 754
674 661
674 823
674 141
674 338
678 747
678 480
678 627
678 509
678 274
678 48
678 549
679 13
679 81
679 137
679 508
679 405
681 12
681 180
681 352
681 343
681 350
681 342
681 191
681 5
681 643
682 520
683 574
685 137
685 175
685 520
685 63
685 305
685 81
685 665
685 647
685 160
685 281
685 4
685 193
685 826
685 286
685 859
685 6
685 138
685 408
685 92
685 845
685 738
685 481
685 812
685 698
685 285
685 412
685 194
685 64
685 252
685 2
685 990
685 536
686 22
686 114
686 531
686 263
686 301
686 245
690 189
690 106
690 215
690 282
690 447
690 21
690 86
690 366
690 107
690 400
690 160
690 5
690 301
692 231
692 360
693 616
694 129
694 493
694 706
694 166
696 74
696 297
696 222
696 349
698 305
698 285
698 58
698 552
698 211
698 481
698 13
698 126
698 57
698 54
698 685
698 59
698 2
698 411
698 271
698 306
699 406
699 700
699 332
699 44
699 529
699 500
699 953
699 845
699 924
699 913
699 320
700 267
700 661
700 720
700 247
700 602
700 707
700 19
700 359
700 358
700 957
700 956
700 238
702 471
705 200
706 280
706 523
707 19
707 700
707 267
707 331
707 247
707 61
707 627
707 765
707 856
707 957
707 950
707 13
708 125
708 353
708 100
708 99
708 38
710 184
710 508
710 498
710 896
710 509
710 952
710 512
712 257
714 425
714 401
714 413
715 21
715 20
715 134
716 5
716 180
717 459
718 287
719 379
719 397
719 296
719 376
719 157
719 182
719 841
719 569
720 555
720 754
720 86
720 707
720 332
720 529
720 765
720 700
720 9
720 498
720 525
720 856
721 229
721 82
722 373
723 538
723 546
723 733
723 923
726 342
726 152
726 612
726 1
726 189
726 5
726 85
726 160
726 107
726 283
726 601
727 83
727 184
728 21
728 327
728 96
728 277
729 129
730 107
730 5
730 160
730 231
730 13
730 211
730 301
730 64
730 468
730 82
730 16
733 420
733 551
733 538
733 728
733 723
733 327
733 923
733 825
733 519
734 0
734 177
738 305
738 211
738 481
738 54
738 552
738 58
738 208
738 520
738 698
738 412
738 2
738 271
738 63
738 4
738 586
738 363
739 312
740 51
741 179
742 166
743 516
743 102
745 189
745 74
745 282
745 408
747 184
747 82
747 418
747 189
747 107
747 667
747 473
747 550
747 549
747 106
747 671
747 710
747 162
747 166
747 301
747 494
747 612
747 105
747 615
747 249
747 611
748 107
748 793
748 160
748 164
748 424
748 151
748 222
748 105
748 367
748 564
748 377
748 256
748 106
748 173
748 182
748 129
748 242
750 88
751 6
751 51
751 128
751 219
752 328
753 860
753 119
753 816
753 900
753 914
754 44
754 720
754 608
754 555
754 565
754 324
754 266
754 360
754 466
754 141
754 293
754 674
754 569
754 211
754 950
754 188
756 215
756 311
756 86
756 142
756 431
756 225
756 106
756 613
756 74
756 118
756 42
756 166
756 223
759 459
759 99
760 546
764 285
765 506
765 504
765 430
765 720
765 525
765 44
765 365
765 499
765 4
766 340
766 521
766 33
768 101
768 99
768 100
768 125
768 935
771 186
773 405
773 52
774 644
776 199
776 41
776 342
776 391
776 572
776 14
776 918
776 593
776 304
778 176
779 426
780 25
781 413
783 82
783 424
783 154
783 420
783 16
783 142
783 483
786 206
786 407
786 519
786 189
786 159
787 343
790 544
790 292
791 612
792 462
793 206
793 613
793 548
796 345
797 605
797 18
797 342
797 656
799 447
799 715
799 189
799 60
800 287
800 185
800 592
803 54
803 195
803 58
803 767
803 194
803 59
803 193
803 63
803 990
805 526
810 420
810 560
810 471
810 87
810 296
810 88
810 301
810 244
810 222
810 180
810 67
811 340
811 28
811 113
812 859
812 57
812 601
812 3
812 880
812 412
812 102
812 273
812 58
812 665
812 366
812 142
812 448
812 54
812 137
812 685
812 285
812 63
812 447
812 45
812 2
812 87
812 252
812 59
812 83
812 282
812 46
812 126
812 971
812 990
812 991
812 932
812 215
812 950
812 193
812 803
813 623
813 434
813 544
813 413
813 515
813 168
813 172
813 836
813 543
813 526
813 600
813 714
813 275
813 93
813 129
813 458
813 585
813 610
814 52
814 347
814 262
814 58
814 586
815 137
815 305
815 520
815 286
815 138
815 92
815 5
815 208
815 64
815 859
815 63
815 246
816 119
816 753
816 151
816 336
816 587
817 544
818 533
818 301
818 92
818 259
818 86
818 339
818 51
819 30
821 160
821 190
822 572
822 350
822 484
822 593
822 280
822 53
822 86
822 908
822 292
822 900
822 953
822 516
823 661
823 558
823 19
823 358
823 707
823 12
823 700
823 566
823 265
823 856
823 521
824 503
825 306
825 544
826 2
826 195
826 194
826 586
826 58
826 412
826 59
826 408
826 859
826 63
826 990
826 1001
826 330
828 233
828 16
828 353
828 371
828 46
828 546
828 45
828 434
828 419
828 64
828 356
828 121
828 889
828 107
828 892
828 369
829 581
832 193
832 826
832 4
832 195
832 2
832 586
832 63
832 412
832 131
832 59
832 408
832 859
832 252
832 57
832 102
832 197
833 44
833 5
833 365
833 856
833 249
833 172
835 275
835 370
836 482
837 259
839 191
839 525
841 376
841 231
841 719
841 312
841 368
841 543
843 358
845 305
845 63
845 4
845 281
845 6
845 520
845 865
845 58
845 685
845 59
845 408
845 859
845 921
845 252
845 3
845 211
845 481
845 699
845 924
845 812
846 605
847 205
847 113
847 47
847 48
847 443
847 172
847 40
847 96
847 925
847 547
847 922
847 171
849 342
851 191
851 852
851 575
851 157
851 352
851 483
851 342
851 214
851 122
852 288
854 18
855 299
855 473
855 549
856 249
856 166
856 44
856 160
856 434
856 421
856 362
856 19
856 466
856 8
856 504
856 141
856 430
856 87
856 107
856 661
856 12
856 558
856 546
856 142
856 950
856 913
856 612
856 212
856 58
856 823
856 83
856 525
856 765
856 358
856 331
856 498
856 560
856 293
856 374
856 707
856 573
856 105
856 956
856 922
856 186
856 720
856 280
859 665
859 58
859 366
859 685
859 137
859 412
859 812
859 4
859 815
859 880
859 160
859 612
859 3
859 434
859 57
859 2
859 63
859 832
859 87
859 303
859 845
859 271
859 254
859 281
859 243
859 193
859 546
859 121
859 162
859 963
859 520
859 174
859 195
859 6
859 849
859 82
859 991
859 132
859 64
859 411
859 803
859 212
859 408
859 585
860 251
860 438
860 816
860 753
860 900
860 169
860 914
860 170
860 337
860 116
860 123
860 338
860 267
861 114
863 57
863 466
864 112
865 305
865 59
865 63
865 845
865 194
865 58
865 87
867 45
868 92
873 142
875 170
875 447
878 35
880 174
880 63
880 685
880 137
880 157
880 815
880 859
880 308
880 59
880 281
880 3
880 386
883 116
883 339
883 337
883 336
883 93
883 32
883 151
884 191
885 728
885 20
885 178
886 601
886 3
886 58
886 217
886 665
886 812
886 59
886 273
886 632
887 20
887 92
887 100
889 405
889 375
889 605
890 281
891 405
891 892
891 229
892 44
892 28
892 114
892 314
892 340
892 226
892 173
892 891
892 896
892 438
892 491
892 423
895 417
895 114
895 175
896 892
896 173
896 28
896 169
896 107
896 81
896 142
896 4
896 116
896 287
896 303
896 375
896 368
896 2
896 63
896 12
896 488
898 481
898 577
900 169
900 438
900 860
900 914
900 128
900 40
900 5
900 987
900 13
901 137
903 907
905 297
905 309
905 215
905 311
905 177
907 191
907 903
907 262
907 156
907 180
907 308
908 201
908 917
908 197
908 918
908 95
908 199
908 822
908 593
908 776
908 204
908 205
908 395
908 592
908 618
909 183
909 129
909 87
909 546
909 54
910 575
912 466
912 504
912 499
912 619
913 922
913 950
913 967
913 499
913 951
913 700
913 44
913 699
913 88
914 860
914 28
914 116
914 900
914 816
914 753
914 987
914 531
914 3
915 157
917 196
917 51
917 197
917 593
917 204
917 205
917 206
917 41
917 95
917 557
917 445
918 908
918 200
918 917
918 593
918 204
918 776
918 197
918 199
918 128
918 201
918 95
918 377
918 974
918 1000
918 232
918 233
919 847
919 40
919 113
921 859
921 845
921 285
921 930
921 63
921 6
921 138
921 412
922 129
922 340
922 847
922 956
922 205
922 79
922 280
922 499
922 498
922 856
922 529
922 266
923 825
924 303
924 209
925 847
925 205
925 113
925 263
925 47
925 423
925 245
925 34
926 243
926 930
926 963
926 159
926 158
926 242
926 301
927 237
927 242
927 963
927 931
927 476
929 164
929 334
929 933
929 322
930 931
930 926
930 236
930 963
930 921
930 208
930 927
931 930
931 159
931 926
931 927
931 238
931 963
931 5
931 294
931 301
931 243
932 283
932 107
932 338
932 281
932 113
932 340
932 106
932 77
932 169
932 46
932 326
932 671
932 174
932 367
932 702
932 453
932 506
932 45
932 147
932 249
932 131
932 544
932 489
932 180
932 310
932 963
932 252
932 128
932 576
932 474
932 233
932 212
932 163
932 23
932 586
932 427
932 41
932 812
932 303
932 63
932 211
932 296
932 255
932 114
932 28
932 81
932 492
932 419
932 31
932 68
932 129
932 254
932 420
932 490
932 83
932 84
933 429
933 929
933 592
933 446
933 447
933 334
933 322
933 956
933 340
934 411
935 125
935 291
937 125
937 640
937 64
937 294
938 611
938 53
942 95
945 327
945 594
946 104
947 60
947 181
947 377
947 248
949 211
949 552
949 305
949 6
949 285
949 57
949 411
949 131
949 54
949 685
949 252
949 59
949 271
949 698
949 880
949 109
950 74
950 474
950 158
950 913
950 58
950 166
950 427
950 473
951 359
951 913
951 141
951 530
952 69
952 509
952 540
952 710
952 81
952 302
953 816
953 301
953 26
953 35
953 699
953 900
953 822
953 997
953 292
954 154
955 128
956 183
956 933
956 913
956 922
956 362
956 565
957 707
957 265
957 12
957 569
957 652
958 69
958 509
958 507
959 196
961 578
962 958
962 552
963 159
963 243
963 931
963 142
963 158
963 236
963 237
963 86
963 930
963 244
963 546
963 612
963 242
963 927
963 240
963 301
963 319
963 87
963 121
963 473
963 932
963 131
963 82
963 859
963 154
963 309
964 110
966 461
968 463
969 509
969 261
970 546
970 51
970 528
971 4
971 804
971 188
971 406
971 514
971 232
971 284
971 488
971 391
971 336
971 582
971 466
971 412
971 823
971 700
971 467
971 554
971 235
971 893
971 324
971 504
971 304
971 114
971 400
971 416
971 417
971 325
971 360
971 29
971 627
971 566
971 480
971 113
971 47
971 196
971 184
971 710
971 108
971 754
971 570
971 569
971 277
971 444
971 608
971 423
971 812
971 190
971 506
971 401
971 540
971 805
971 343
971 20
971 729
971 505
971 93
971 679
971 174
971 747
971 8
971 430
971 448
971 723
971 251
971 307
971 2
971 3
971 63
971 520
971 446
972 128
974 87
974 128
974 593
974 918
974 917
974 380
976 113
976 417
976 443
976 263
976 444
976 442
976 919
976 547
976 423
976 245
976 47
976 76
976 171
976 847
976 925
976 527
976 595
977 501
978 900
978 860
979 1
979 106
979 105
980 5
980 261
980 64
980 757
980 119
980 532
981 114
981 847
981 925
981 527
981 113
981 417
981 443
981 444
981 919
981 547
981 423
981 245
981 47
981 76
981 485
981 171
981 411
981 93
982 137
982 576
983 557
984 425
985 41
986 339
987 553
989 329
990 4
990 138
991 412
991 812
991 520
991 74
992 129
992 23
995 712
996 12
997 368
998 582
1000 918
1000 14
1000 292
1000 206
1000 222
1001 4
1001 193
1001 826
1001 194
1001 832
1001 803
1001 990
1001 293
1002 224
